generated by phonopy
   1.0
     3.0729994773999998    0.0000000000000000    0.0000000000000000
     0.0000000000000000   15.9677772521999994    0.0000000000000000
     0.0000000000000000    0.0000000000000000   36.0000000000000000
Ga O Si C H
  16   24   30   30    6
Direct
  0.4999943306599960  0.0816471882530328  0.6546633018730205
  0.9999975369044838  0.2409238341459294  0.6045454308932667
  0.9999861445121929  0.1244696121795247  0.7762259648167439
  0.9999936444089333  0.2363298094395180  0.7001397772301943
  0.4999768593379685  0.3952768426416549  0.6535774624430661
  0.5000272090301890  0.5057547726012113  0.5754726018866257
  0.4999785248216908  0.3021807649794891  0.7876617946247731
  0.9999963598641752  0.4585847051773027  0.7347688990418779
  0.0032516538965768  0.5816467671438046  0.6546627296804931
  0.5000030364318957  0.7409227031684865  0.6045439659237600
  0.4999928288892607  0.6244747537252855  0.7762276442272951
  0.4999958032740902  0.7363310057227743  0.7001377183317448
  0.9999949673649119  0.8952776687888889  0.6535752839890614
  0.9999758574420298  0.0057535312840481  0.5754731651130515
  0.9999248306661724  0.8021742397179946  0.7876597073966211
  0.4999994688886268  0.9585825907593662  0.7347683975146230
  0.0000008209881871  0.0169133998717484  0.6262509459326108
  0.0000439049247178  0.2317266944889092  0.5549280419228726
  0.5000034127069535  0.1822586448881777  0.6211039222328405
  0.9999957860389491  0.1247976648758191  0.6826411398503602
  0.4999868625348889  0.0662270315744453  0.7566354579051491
  0.5000072409319717  0.4035171221947330  0.5541110207763454
  0.9999759202873766  0.3504375315814205  0.6258728767862021
  0.4999952152838307  0.2957043741483257  0.6872726517813099
  0.9999480261286496  0.2331875667557995  0.7522548108205830
  0.0000289779063507  0.5605403248861743  0.5547088799404424
  0.5000060533125976  0.5169125249133559  0.6262511005597233
  0.9999938725781102  0.4602177825194668  0.6818221642493439
  0.4999974092509630  0.4065471937608451  0.7522123245166183
  0.5000151339401500  0.7316947724325188  0.5549272952162202
  0.0000006049896503  0.6822588167992314  0.6211023101281790
  0.5000002567171621  0.6247969446385205  0.6826411029425753
  0.9999928024033725  0.5662210652343004  0.7566354261799046
  0.0000018057175091  0.9035138778061913  0.5541115448031231
  0.4999948060866842  0.8504413397748691  0.6258681213335964
  0.9999984627000436  0.7957050434167201  0.6872693363737972
  0.4999598476589406  0.7331931436747994  0.7522511821877723
  0.4999765115665358  0.0605432332460611  0.5547104819089244
  0.4999959828059909  0.9602162134337786  0.6818217741648361
  0.0000003039936130  0.9065486067674308  0.7522126591842286
  0.0000020560317354  0.8991651671498067  0.2292479685933492
  0.0000017668410400  0.5658172512676992  0.2292765679780456
  0.0000026124197934  0.2324559102615745  0.2292307439103458
  0.4999988267937626  0.0658163114284797  0.2292771034684707
  0.5000031821256854  0.7324559151400322  0.2292315754421193
  0.5000029736932530  0.3991656406376490  0.2292466828634476
  0.0000068907602845  0.0104903202676654  0.2992354197779000
  0.0000063925933468  0.3437142281272401  0.2991629650929659
  0.0000075741549972  0.6771963669580351  0.2992476721097121
  0.5000053289206112  0.8437135775919844  0.2991635524247254
  0.5000062578882155  0.5104885813071754  0.2992347476745967
  0.5000054824964683  0.1771970021361604  0.2992467889133685
  0.9999993736732788  0.8991235871007761  0.3689189614071485
  0.0000021890790058  0.2327733507920262  0.3692222625411196
  0.0000101699382377  0.5662032726567630  0.3690490758422151
  0.4999992193108467  0.0662044533904683  0.3690499628990118
  0.5000080012051391  0.3991224016548071  0.3689178502647801
  0.5000036158523592  0.7327737477369416  0.3692229784556629
  0.9999885514864836  0.1220757680996709  0.4390059155852316
  0.0000076683824325  0.4547471059688085  0.4384322145987734
  0.0000078545600301  0.7884745108228702  0.4394401377183081
  0.5000143653831657  0.6220753270401242  0.4390056020742094
  0.5000006446864753  0.2884746140728611  0.4394401716297019
  0.4999927512481260  0.9547484790672949  0.4384327347707989
  0.9999981733705481  0.8991502208445851  0.5083726564523628
  0.0000004865946853  0.2344299783414596  0.5104097359865550
  0.0000250993608189  0.5657659308815347  0.5066799999084506
  0.5000140024481391  0.7344249247100896  0.5104093904310351
  0.5000070692137657  0.3991503173764758  0.5083727720031880
  0.4999816267674987  0.0657681958775881  0.5066806461190289
  0.9999979091841319  0.1213220354474623  0.2126893053694884
  0.0000025363182939  0.7880231928500264  0.2126806882301803
  0.0000008602535554  0.4547066972330959  0.2126907789460773
  0.4999995664309294  0.9547046444302866  0.2126918748513394
  0.5000013956791848  0.6213229748055084  0.2126896617376892
  0.5000025697204160  0.2880236042414254  0.2126794080216579
  0.0000030994030297  0.8993463180551867  0.2816124939516214
  0.0000060643411745  0.2326126038920388  0.2815898695662961
  0.9999991267199602  0.5660289952817684  0.2816565523669347
  0.5000018076315678  0.0660300913385240  0.2816570055857052
  0.5000065430319167  0.3993467610632205  0.2816112993689153
  0.5000062448191310  0.7326118611154625  0.2815905452580130
  0.0000014870118368  0.0104884710037450  0.3517496457397366
  0.0000040781235180  0.3436619575173159  0.3515979151351667
  0.0000054291987393  0.6772553900877547  0.3517616770428948
  0.5000017049874943  0.8436618615749417  0.3515984555379951
  0.5000114209590975  0.5104873949671591  0.3517491438362185
  0.5000006032796170  0.1772556885664593  0.3517607778662064
  0.0000140569961865  0.5664134610866438  0.4214427523154438
  0.0000049709037522  0.2329681654750212  0.4216389829879400
  0.9999935268043570  0.8991905187094184  0.4210777985567812
  0.4999888025148169  0.0664142281422340  0.4214431688579365
  0.5000086352760430  0.3991903642892812  0.4210769657354391
  0.5000020891711251  0.7329686313984534  0.4216392774628635
  0.4999941189286963  0.9549216690624024  0.4905330931554525
  0.5000029586059185  0.2883893228215155  0.4919299911829955
  0.5000244324863745  0.6224522655028398  0.4921115993662070
  0.0000111198173043  0.7883886460828078  0.4919300895128974
  0.0000078931539151  0.4549214796788699  0.4905320580070964
  0.9999828385846402  0.1224551072572889  0.4921134999319213
  0.5000048414763723  0.9547952146761403  0.1819952112501558
  0.9999993998365959  0.1212478280497825  0.1819929021697373
  0.4999991246653861  0.2880718433031571  0.1819828420840783
  0.0000037940940399  0.4547972665837586  0.1819941355586012
  0.5000036561524339  0.6212510216831543  0.1819929749747174
  0.0000051669790796  0.7880692466371058  0.1819839288016682
