generated by phonopy
   1.0
    12.4681499089511991    0.0000000000000000    0.0261556003981172
     0.0000000000000006    9.2628647401318833    0.0000000000000000
    -2.8074006944537206    0.0000000000000008   11.4267518629163440
Ga O
  48   72
Direct
  0.0898816259075215  0.0000000000000000  0.3973530055112348
  0.0898816259075215  0.3333333333333333  0.3973530055112348
  0.0898816259075215  0.6666666666666666  0.3973530055112348
  0.0898816259075215  0.0000000000000000  0.8973530055112349
  0.0898816259075215  0.3333333333333334  0.8973530055112349
  0.0898816259075215  0.6666666666666666  0.8973530055112349
  0.9101183740924784  0.0000000000000000  0.1026469944887652
  0.9101183740924784  0.3333333333333333  0.1026469944887652
  0.9101183740924784  0.6666666666666666  0.1026469944887652
  0.9101183740924784  0.0000000000000000  0.6026469944887654
  0.9101183740924784  0.3333333333333333  0.6026469944887654
  0.9101183740924784  0.6666666666666667  0.6026469944887654
  0.5898816259075287  0.1666666666666667  0.3973530055112349
  0.5898816259075287  0.4999999999999999  0.3973530055112349
  0.5898816259075287  0.8333333333333333  0.3973530055112349
  0.5898816259075287  0.1666666666666666  0.8973530055112350
  0.5898816259075287  0.5000000000000000  0.8973530055112350
  0.5898816259075287  0.8333333333333333  0.8973530055112350
  0.4101183740924785  0.1666666666666667  0.1026469944887652
  0.4101183740924785  0.5000000000000000  0.1026469944887652
  0.4101183740924785  0.8333333333333333  0.1026469944887652
  0.4101183740924785  0.1666666666666667  0.6026469944887652
  0.4101183740924785  0.5000000000000001  0.6026469944887652
  0.4101183740924785  0.8333333333333334  0.6026469944887652
  0.3415340159181398  0.0000000000000000  0.3429895113843237
  0.3415340159181398  0.3333333333333333  0.3429895113843237
  0.3415340159181398  0.6666666666666666  0.3429895113843237
  0.3415340159181398  0.0000000000000000  0.8429895113843238
  0.3415340159181398  0.3333333333333334  0.8429895113843238
  0.3415340159181398  0.6666666666666666  0.8429895113843238
  0.6584659840818603  0.0000000000000000  0.1570104886156763
  0.6584659840818603  0.3333333333333333  0.1570104886156763
  0.6584659840818603  0.6666666666666666  0.1570104886156763
  0.6584659840818603  0.0000000000000000  0.6570104886156765
  0.6584659840818603  0.3333333333333333  0.6570104886156765
  0.6584659840818603  0.6666666666666666  0.6570104886156765
  0.8415340159181396  0.1666666666666667  0.3429895113843237
  0.8415340159181396  0.4999999999999999  0.3429895113843237
  0.8415340159181396  0.8333333333333333  0.3429895113843237
  0.8415340159181397  0.1666666666666666  0.8429895113843238
  0.8415340159181397  0.5000000000000000  0.8429895113843238
  0.8415340159181397  0.8333333333333333  0.8429895113843238
  0.1584659840818602  0.1666666666666667  0.1570104886156764
  0.1584659840818602  0.5000000000000000  0.1570104886156764
  0.1584659840818602  0.8333333333333333  0.1570104886156764
  0.1584659840818602  0.1666666666666667  0.6570104886156763
  0.1584659840818602  0.5000000000000000  0.6570104886156763
  0.1584659840818602  0.8333333333333333  0.6570104886156763
  0.1635455319522487  0.0000000000000000  0.0545041021377574
  0.1635455319522487  0.3333333333333333  0.0545041021377574
  0.1635455319522487  0.6666666666666666  0.0545041021377574
  0.1635455319522487  0.0000000000000000  0.5545041021377575
  0.1635455319522487  0.3333333333333333  0.5545041021377575
  0.1635455319522487  0.6666666666666666  0.5545041021377575
  0.8364544680477513  0.0000000000000000  0.4454958978622427
  0.8364544680477513  0.3333333333333333  0.4454958978622427
  0.8364544680477513  0.6666666666666666  0.4454958978622427
  0.8364544680477513  0.0000000000000000  0.9454958978622428
  0.8364544680477513  0.3333333333333334  0.9454958978622428
  0.8364544680477513  0.6666666666666666  0.9454958978622428
  0.6635455319522487  0.1666666666666667  0.0545041021377574
  0.6635455319522487  0.5000000000000000  0.0545041021377574
  0.6635455319522487  0.8333333333333333  0.0545041021377574
  0.6635455319522487  0.1666666666666667  0.5545041021377574
  0.6635455319522487  0.4999999999999999  0.5545041021377574
  0.6635455319522487  0.8333333333333333  0.5545041021377574
  0.3364544680477515  0.1666666666666667  0.4454958978622428
  0.3364544680477514  0.4999999999999999  0.4454958978622428
  0.3364544680477515  0.8333333333333333  0.4454958978622428
  0.3364544680477514  0.1666666666666666  0.9454958978622428
  0.3364544680477514  0.5000000000000000  0.9454958978622428
  0.3364544680477515  0.8333333333333333  0.9454958978622428
  0.4959926316725625  0.0000000000000000  0.1283287523184794
  0.4959926316725625  0.3333333333333333  0.1283287523184794
  0.4959926316725625  0.6666666666666666  0.1283287523184794
  0.4959926316725625  0.0000000000000000  0.6283287523184793
  0.4959926316725625  0.3333333333333333  0.6283287523184793
  0.4959926316725625  0.6666666666666667  0.6283287523184793
  0.5040073683274373  0.0000000000000000  0.3716712476815243
  0.5040073683274373  0.3333333333333333  0.3716712476815243
  0.5040073683274372  0.6666666666666666  0.3716712476815243
  0.5040073683274373  0.0000000000000000  0.8716712476815243
  0.5040073683274373  0.3333333333333334  0.8716712476815243
  0.5040073683274373  0.6666666666666666  0.8716712476815243
  0.9959926316725627  0.1666666666666667  0.1283287523184793
  0.9959926316725627  0.5000000000000000  0.1283287523184793
  0.9959926316725627  0.8333333333333333  0.1283287523184793
  0.9959926316725626  0.1666666666666667  0.6283287523184793
  0.9959926316725626  0.5000000000000001  0.6283287523184793
  0.9959926316725626  0.8333333333333334  0.6283287523184793
  0.0040073683274375  0.1666666666666667  0.3716712476815243
  0.0040073683274375  0.4999999999999999  0.3716712476815243
  0.0040073683274375  0.8333333333333333  0.3716712476815243
  0.0040073683274375  0.1666666666666666  0.8716712476815244
  0.0040073683274375  0.5000000000000000  0.8716712476815244
  0.0040073683274375  0.8333333333333333  0.8716712476815244
  0.8269851016745978  0.0006438146279884  0.2178707633303693
  0.8263412870466093  0.3333333333333333  0.2178707633303693
  0.8263412870466093  0.6666666666666666  0.2178707633303693
  0.8263412870466093  0.0000000000000000  0.7178707633303693
  0.8263412870466093  0.3333333333333333  0.7178707633303693
  0.8263412870466093  0.6666666666666666  0.7178707633303693
  0.1736587129533909  0.0000000000000000  0.2821292366696307
  0.1736587129533909  0.3333333333333334  0.2821292366696307
  0.1736587129533909  0.6666666666666666  0.2821292366696307
  0.1736587129533909  0.0000000000000000  0.7821292366696307
  0.1736587129533909  0.3333333333333333  0.7821292366696307
  0.1736587129533909  0.6666666666666666  0.7821292366696307
  0.3263412870466091  0.1666666666666667  0.2178707633303693
  0.3263412870466091  0.5000000000000000  0.2178707633303693
  0.3263412870466091  0.8333333333333333  0.2178707633303693
  0.3263412870466091  0.1666666666666667  0.7178707633303694
  0.3263412870466091  0.5000000000000000  0.7178707633303694
  0.3263412870466091  0.8333333333333333  0.7178707633303694
  0.6736587129533907  0.1666666666666667  0.2821292366696307
  0.6736587129533907  0.5000000000000000  0.2821292366696307
  0.6736587129533907  0.8333333333333333  0.2821292366696307
  0.6736587129533907  0.1666666666666667  0.7821292366696306
  0.6736587129533907  0.5000000000000000  0.7821292366696306
  0.6736587129533907  0.8333333333333333  0.7821292366696306
