POSCAR file written by OVITO Basic 3.12.
    1.000000000000000     
    12.4681499089511991    0.0000000000000000    0.0261556003981172
     0.0000000000000002    3.0876215800439613   -0.0000000000000000
    -1.4037003472268603    0.0000000000000004    5.7133759314581720
   Ga   O 
     8    12
Direct
  0.0898816259075215  0.0000000000000000  0.7947060110224696
  0.9101183740924784 -0.0000000000000000  0.2052939889775304
  0.5898816259075287  0.5000000000000000  0.7947060110224696
  0.4101183740924785  0.5000000000000000  0.2052939889775304
  0.3415340159181398  0.0000000000000000  0.6859790227686473
  0.6584659840818603 -0.0000000000000000  0.3140209772313527
  0.8415340159181397  0.5000000000000000  0.6859790227686473
  0.1584659840818602  0.5000000000000000  0.3140209772313527
  0.1635455319522487 -0.0000000000000000  0.1090082042755147
  0.8364544680477513 -0.0000000000000000  0.8909917957244854
  0.6635455319522487  0.5000000000000000  0.1090082042755147
  0.3364544680477514  0.5000000000000000  0.8909917957244854
  0.4959926316725625  0.0000000000000000  0.2566575046369587
  0.5040073683274373 -0.0000000000000000  0.7433424953630485
  0.9959926316725627  0.5000000000000000  0.2566575046369587
  0.0040073683274375  0.5000000000000000  0.7433424953630485
  0.8263412870466093  0.0000000000000000  0.4357415266607385
  0.1736587129533909 -0.0000000000000000  0.5642584733392614
  0.3263412870466091  0.5000000000000000  0.4357415266607385
  0.6736587129533907  0.5000000000000000  0.5642584733392614
 
  0.00000000E+00  0.00000000E+00  0.00000000E+00
  0.00000000E+00  0.00000000E+00  0.00000000E+00
  0.00000000E+00  0.00000000E+00  0.00000000E+00
  0.00000000E+00  0.00000000E+00  0.00000000E+00
  0.00000000E+00  0.00000000E+00  0.00000000E+00
  0.00000000E+00  0.00000000E+00  0.00000000E+00
  0.00000000E+00  0.00000000E+00  0.00000000E+00
  0.00000000E+00  0.00000000E+00  0.00000000E+00
  0.00000000E+00  0.00000000E+00  0.00000000E+00
  0.00000000E+00  0.00000000E+00  0.00000000E+00
  0.00000000E+00  0.00000000E+00  0.00000000E+00
  0.00000000E+00  0.00000000E+00  0.00000000E+00
  0.00000000E+00  0.00000000E+00  0.00000000E+00
  0.00000000E+00  0.00000000E+00  0.00000000E+00
  0.00000000E+00  0.00000000E+00  0.00000000E+00
  0.00000000E+00  0.00000000E+00  0.00000000E+00
  0.00000000E+00  0.00000000E+00  0.00000000E+00
  0.00000000E+00  0.00000000E+00  0.00000000E+00
  0.00000000E+00  0.00000000E+00  0.00000000E+00
  0.00000000E+00  0.00000000E+00  0.00000000E+00
