Ga O 
 1.0000000000000000
    12.4681499089511991    0.0000000000000000    0.0261556003981172
     0.0000000000000002    3.0876215800439613   -0.0000000000000000
    -1.4037003472268603    0.0000000000000004    5.7133759314581720
 Ga  O  
   8  12
Cartesian
  0.0051284822597362  0.0000000000000003  4.5428051038512809
 11.0593210794646026  0.0000000000000001  1.1967264280050085
  6.2392034367354254  1.5438107900219808  4.5558829040503399
  4.8252461249890031  1.5438107900219806  1.1836486278059499
  3.2953883170227996  0.0000000000000003  3.9281890654143061
  7.7690612447015406  0.0000000000000001  1.8113424664419833
  9.5294632714983969  1.5438107900219808  3.9412668656133647
  1.5349862902259397  1.5438107900219808  1.7982646662429247
  1.8860953551276884  0.0000000000000000  0.6270824822198421
  9.1783542065966497  0.0000000000000004  5.1124490496364476
  8.1201703096032887  1.5438107900219806  0.6401602824189007
  2.9442792521210523  1.5438107900219811  5.0993712494373895
  5.8238402570514474  0.0000000000000001  1.4793537946953521
  5.2406093046728790  0.0000000000000003  4.2601777371609781
 12.0579152115270496  1.5438107900219806  1.4924315948944107
 -0.9934656498027181  1.5438107900219808  4.2470999369619200
  9.6912965105779580  0.0000000000000002  2.5111686032567597
  1.3731530511463839  0.0000000000000002  3.2283629285995290
  3.4572215561023554  1.5438107900219808  2.4980908030577011
  7.6072280056219821  1.5438107900219808  3.2414407287985876
Cartesian
  0.0000000000000000  0.0000000000000000  0.0000000000000000
  0.0000000000000000  0.0000000000000000  0.0000000000000000
  0.0000000000000000  0.0000000000000000  0.0000000000000000
  0.0000000000000000  0.0000000000000000  0.0000000000000000
  0.0000000000000000  0.0000000000000000  0.0000000000000000
  0.0000000000000000  0.0000000000000000  0.0000000000000000
  0.0000000000000000  0.0000000000000000  0.0000000000000000
  0.0000000000000000  0.0000000000000000  0.0000000000000000
  0.0000000000000000  0.0000000000000000  0.0000000000000000
  0.0000000000000000  0.0000000000000000  0.0000000000000000
  0.0000000000000000  0.0000000000000000  0.0000000000000000
  0.0000000000000000  0.0000000000000000  0.0000000000000000
  0.0000000000000000  0.0000000000000000  0.0000000000000000
  0.0000000000000000  0.0000000000000000  0.0000000000000000
  0.0000000000000000  0.0000000000000000  0.0000000000000000
  0.0000000000000000  0.0000000000000000  0.0000000000000000
  0.0000000000000000  0.0000000000000000  0.0000000000000000
  0.0000000000000000  0.0000000000000000  0.0000000000000000
  0.0000000000000000  0.0000000000000000  0.0000000000000000
  0.0000000000000000  0.0000000000000000  0.0000000000000000
