Gallium trioxide, chromium(III)-doped (2
    1.000000000000000     
     3.0899999141999999    0.0000000000000000    0.0000000000000000
     0.0000000000000000   11.2700004578000001    0.0000000000000000
     0.0000000000000000    0.0000000000000000   39.2999999999999972
   Si   C    H 
    20    20     4
Direct
  0.1442702419270887  0.8800587907276523  0.2353404877130671
  0.8557313722545530  0.3800601229885174  0.2353403271237084
  0.3560361168934989  0.1300796765599799  0.2353426817064843
  0.3560242416543460  0.6300774822508970  0.2353414346041021
  0.8564104611227066  0.0435536787113335  0.2991086007311026
  0.8564088784524699  0.5435561900894754  0.2991081515031269
  0.3553179918933580  0.7935684046339730  0.2991228866752778
  0.3553115843431840  0.2935668683401929  0.2991226447883335
  0.8536520764084443  0.3768220516145036  0.3627197140107796
  0.8536656542680063  0.8768208250946827  0.3627194880400424
  0.3577659838605740  0.1267268194077715  0.3626936008629116
  0.3577611948848656  0.6267236254745256  0.3626948146218609
  0.8645768966278524  0.2130100836922750  0.4265008384585940
  0.8645730949020560  0.7130087307938879  0.4265003894703625
  0.3479058163700088  0.9640098488426005  0.4262775315810572
  0.3478857385141936  0.4640057842499701  0.4262777235263115
  0.8290658391905623  0.3788689495381732  0.4877775740141459
  0.8290585733015376  0.8788674548719939  0.4877781539148884
  0.3863209798822425  0.6310379947258653  0.4915168816147357
  0.3863217242360619  0.1310394255381340  0.4915163892185248
  0.8560042656380915  0.2152471777227518  0.2207052110298449
  0.8559905702854209  0.7152526554094436  0.2207060706839385
  0.3557854244136891  0.9652610799151660  0.2207135023429529
  0.3558011128298588  0.4652587958019225  0.2207136814620014
  0.8554798369610523  0.3784322602378012  0.2834823859525386
  0.8554907097491835  0.8784319624134653  0.2834818237306536
  0.3562305055573773  0.1284779658362041  0.2834808848651065
  0.3562368762502643  0.6284754179448697  0.2834803920526099
  0.8571227137559490  0.0417252506483052  0.3473500618347884
  0.8571137573980039  0.5417239015663071  0.3473497810520172
  0.3542555746943208  0.7917550671397606  0.3473937640776086
  0.3542608405016665  0.2917607869369476  0.3473942559607863
  0.8503967414045519  0.8786442223749447  0.4108266555609958
  0.8503854147288905  0.3786411472196178  0.4108263918376593
  0.3618079801764367  0.1284865091468319  0.4107420648269908
  0.3617990263750883  0.6284848202407645  0.4107420888705775
  0.3347445340060631  0.4654769601131648  0.4748491225824552
  0.3347344209677559  0.9654771759449190  0.4748498639634917
  0.8782938751528135  0.7152958181706239  0.4745597777351946
  0.8782934202172896  0.2152976434277178  0.4745596767981866
  0.8563047244259891  0.2151220840953201  0.1925202314175607
  0.8562978537622428  0.7151206429915078  0.1925204237729901
  0.3558166224440171  0.4651348371110799  0.1925290863774975
  0.3558092412562459  0.9651380738394479  0.1925299021294649
 
  0.00000000E+00  0.00000000E+00  0.00000000E+00
  0.00000000E+00  0.00000000E+00  0.00000000E+00
  0.00000000E+00  0.00000000E+00  0.00000000E+00
  0.00000000E+00  0.00000000E+00  0.00000000E+00
  0.00000000E+00  0.00000000E+00  0.00000000E+00
  0.00000000E+00  0.00000000E+00  0.00000000E+00
  0.00000000E+00  0.00000000E+00  0.00000000E+00
  0.00000000E+00  0.00000000E+00  0.00000000E+00
  0.00000000E+00  0.00000000E+00  0.00000000E+00
  0.00000000E+00  0.00000000E+00  0.00000000E+00
  0.00000000E+00  0.00000000E+00  0.00000000E+00
  0.00000000E+00  0.00000000E+00  0.00000000E+00
  0.00000000E+00  0.00000000E+00  0.00000000E+00
  0.00000000E+00  0.00000000E+00  0.00000000E+00
  0.00000000E+00  0.00000000E+00  0.00000000E+00
  0.00000000E+00  0.00000000E+00  0.00000000E+00
  0.00000000E+00  0.00000000E+00  0.00000000E+00
  0.00000000E+00  0.00000000E+00  0.00000000E+00
  0.00000000E+00  0.00000000E+00  0.00000000E+00
  0.00000000E+00  0.00000000E+00  0.00000000E+00
  0.00000000E+00  0.00000000E+00  0.00000000E+00
  0.00000000E+00  0.00000000E+00  0.00000000E+00
  0.00000000E+00  0.00000000E+00  0.00000000E+00
  0.00000000E+00  0.00000000E+00  0.00000000E+00
  0.00000000E+00  0.00000000E+00  0.00000000E+00
  0.00000000E+00  0.00000000E+00  0.00000000E+00
  0.00000000E+00  0.00000000E+00  0.00000000E+00
  0.00000000E+00  0.00000000E+00  0.00000000E+00
  0.00000000E+00  0.00000000E+00  0.00000000E+00
  0.00000000E+00  0.00000000E+00  0.00000000E+00
  0.00000000E+00  0.00000000E+00  0.00000000E+00
  0.00000000E+00  0.00000000E+00  0.00000000E+00
  0.00000000E+00  0.00000000E+00  0.00000000E+00
  0.00000000E+00  0.00000000E+00  0.00000000E+00
  0.00000000E+00  0.00000000E+00  0.00000000E+00
  0.00000000E+00  0.00000000E+00  0.00000000E+00
  0.00000000E+00  0.00000000E+00  0.00000000E+00
  0.00000000E+00  0.00000000E+00  0.00000000E+00
  0.00000000E+00  0.00000000E+00  0.00000000E+00
  0.00000000E+00  0.00000000E+00  0.00000000E+00
  0.00000000E+00  0.00000000E+00  0.00000000E+00
  0.00000000E+00  0.00000000E+00  0.00000000E+00
  0.00000000E+00  0.00000000E+00  0.00000000E+00
  0.00000000E+00  0.00000000E+00  0.00000000E+00
