Gallium trioxide, chromium(III)-doped (2
    1.000000000000000     
     3.0899999141999999    0.0000000000000000    0.0000000000000000
     0.0000000000000000   11.2700004578000001    0.0000000000000000
     0.0000000000000000    0.0000000000000000   39.2999999999999972
   Si   C    H 
    20    20     4
Direct
  0.1442702419270860  0.8800587907276493  0.2353404877130688
 -0.1442686277454442  0.3800601229885163  0.2353403271237104
  0.3560361168935010  0.1300796765599815  0.2353426817064849
  0.3560242416543451  0.6300774822508964  0.2353414346041026
 -0.1435895388772959  0.0435536787113316  0.2991086007311053
 -0.1435911215475310  0.5435561900894750  0.2991081515031254
  0.3553179918933551  0.7935684046339720  0.2991228866752785
  0.3553115843431831  0.2935668683401926  0.2991226447883308
 -0.1463479235915573  0.3768220516145019  0.3627197140107778
 -0.1463343457319949  0.8768208250946812  0.3627194880400447
  0.3577659838605757  0.1267268194077706  0.3626936008629120
  0.3577611948848630  0.6267236254745232  0.3626948146218574
 -0.1354231033721487  0.2130100836922785  0.4265008384585906
 -0.1354269050979471  0.7130087307938852  0.4265003894703633
  0.3479058163700119  0.9640098488426008  0.4262775315810578
  0.3478857385141903  0.4640057842499677  0.4262777235263137
 -0.1709341608094347  0.3788689495381712  0.4877775740141492
 -0.1709414266984613  0.8788674548719915  0.4877781539148891
  0.3863209798822406  0.6310379947258679  0.4915168816147353
  0.3863217242360595  0.1310394255381361  0.4915163892185251
 -0.1439957343619053  0.2152471777227534  0.2207052110298446
 -0.1440094297145824  0.7152526554094402  0.2207060706839360
  0.3557854244136890  0.9652610799151632  0.2207135023429558
  0.3558011128298614  0.4652587958019244  0.2207136814620021
 -0.1445201630389500  0.3784322602377987  0.2834823859525384
 -0.1445092902508189  0.8784319624134654  0.2834818237306531
  0.3562305055573797  0.1284779658362073  0.2834808848651031
  0.3562368762502632  0.6284754179448691  0.2834803920526068
 -0.1428772862440506  0.0417252506483039  0.3473500618347896
 -0.1428862426019934  0.5417239015663105  0.3473497810520172
  0.3542555746943229  0.7917550671397573  0.3473937640776119
  0.3542608405016667  0.2917607869369500  0.3473942559607858
 -0.1496032585954450  0.8786442223749439  0.4108266555609942
 -0.1496145852711065  0.3786411472196162  0.4108263918376622
  0.3618079801764355  0.1284865091468289  0.4107420648269874
  0.3617990263750918  0.6284848202407630  0.4107420888705807
  0.3347445340060661  0.4654769601131663  0.4748491225824569
  0.3347344209677537  0.9654771759449169  0.4748498639634939
 -0.1217061248471841  0.7152958181706268  0.4745597777351923
 -0.1217065797827120  0.2152976434277150  0.4745596767981864
 -0.1436952755740094  0.2151220840953218  0.1925202314175607
 -0.1437021462377587  0.7151206429915054  0.1925204237729884
  0.3558166224440190  0.4651348371110778  0.1925290863775003
  0.3558092412562446  0.9651380738394452  0.1925299021294681
