Silicon carbide - alpha III             
    1.000000000000000     
     3.0729994773999998    0.0000000000000000    0.0000000000000000
     0.0000000000000000   15.9677772521999994    0.0000000000000000
     0.0000000000000000    0.0000000000000000   36.0000000000000000
   Ga   O    Si   C    H 
    16    24    30    30     6
Direct
  0.4999943306599945  0.0816471882530294  0.6546633018730219
  0.9999975369044805  0.2409238341459314  0.6045454308932676
  0.9999861445121923  0.1244696121795243  0.7762259648167458
  0.9999936444089315  0.2363298094395176  0.7001397772301914
  0.4999768593379699  0.3952768426416569  0.6535774624430672
  0.5000272090301863  0.5057547726012146  0.5754726018866236
  0.4999785248216924  0.3021807649794894  0.7876617946247748
  0.9999963598641770  0.4585847051773015  0.7347688990418746
  0.9999975043031455  0.5816467671438019  0.6546627296804957
  0.5000030364318988  0.7409227031684864  0.6045439659237601
  0.4999928288892619  0.6244747537252877  0.7762276442272977
  0.4999958032740892  0.7363310057227750  0.7001377183317459
  0.9999949673649127  0.8952776687888857  0.6535752839890634
  0.9999758574420312  0.0057535312840500  0.5754731651130527
  0.9999248306661741  0.8021742397179921  0.7876597073966209
  0.4999994688886247  0.9585825907593630  0.7347683975146211
  0.0000008209881841  0.0169133998717470  0.6262509459326111
  0.0000439049247163  0.2317266944889127  0.5549280419228708
  0.5000034127069526  0.1822586448881793  0.6211039222328409
  0.9999957860389515  0.1247976648758211  0.6826411398503609
  0.4999868625348896  0.0662270315744422  0.7566354579051477
  0.5000072409319714  0.4035171221947351  0.5541110207763467
  0.9999759202873761  0.3504375315814201  0.6258728767862038
  0.4999952152838318  0.2957043741483290  0.6872726517813135
  0.9999480261286493  0.2331875667558023  0.7522548108205811
  0.0000289779063536  0.5605403248861762  0.5547088799404420
  0.5000060533125961  0.5169125249133586  0.6262511005597204
  0.9999938725781092  0.4602177825194644  0.6818221642493469
  0.4999974092509660  0.4065471937608436  0.7522123245166199
  0.5000151339401526  0.7316947724325189  0.5549272952162170
  0.0000006049896513  0.6822588167992336  0.6211023101281796
  0.5000002567171649  0.6247969446385184  0.6826411029425756
  0.9999928024033693  0.5662210652343020  0.7566354261799049
  0.0000018057175097  0.9035138778061906  0.5541115448031206
  0.4999948060866828  0.8504413397748678  0.6258681213335962
  0.9999984627000416  0.7957050434167172  0.6872693363737952
  0.4999598476589426  0.7331931436747965  0.7522511821877700
  0.4999765115665369  0.0605432332460580  0.5547104819089270
  0.4999959828059914  0.9602162134337817  0.6818217741648382
  0.0000003039936161  0.9065486067674300  0.7522126591842309
  0.0000020560317324  0.8991651671498033  0.2292479685933486
  0.0000017668410379  0.5658172512677027  0.2292765679780473
  0.0000026124197916  0.2324559102615780  0.2292307439103425
  0.4999988267937638  0.0658163114284775  0.2292771034684691
  0.5000031821256883  0.7324559151400294  0.2292315754421210
  0.5000029736932561  0.3991656406376478  0.2292466828634474
  0.0000068907602824  0.0104903202676638  0.2992354197779008
  0.0000063925933489  0.3437142281272401  0.2991629650929681
  0.0000075741549992  0.6771963669580359  0.2992476721097148
  0.5000053289206079  0.8437135775919842  0.2991635524247229
  0.5000062578882165  0.5104885813071789  0.2992347476745962
  0.5000054824964693  0.1771970021361611  0.2992467889133650
  0.9999993736732762  0.8991235871007746  0.3689189614071466
  0.0000021890790052  0.2327733507920229  0.3692222625411219
  0.0000101699382355  0.5662032726567645  0.3690490758422129
  0.4999992193108440  0.0662044533904691  0.3690499628990125
  0.5000080012051384  0.3991224016548074  0.3689178502647792
  0.5000036158523571  0.7327737477369425  0.3692229784556602
  0.9999885514864815  0.1220757680996698  0.4390059155852342
  0.0000076683824304  0.4547471059688064  0.4384322145987767
  0.0000078545600317  0.7884745108228728  0.4394401377183073
  0.5000143653831657  0.6220753270401218  0.4390056020742108
  0.5000006446864731  0.2884746140728609  0.4394401716297054
  0.4999927512481293  0.9547484790672982  0.4384327347707995
  0.9999981733705496  0.8991502208445823  0.5083726564523658
  0.0000004865946863  0.2344299783414598  0.5104097359865563
  0.0000250993608191  0.5657659308815326  0.5066799999084495
  0.5000140024481396  0.7344249247100905  0.5104093904310361
  0.5000070692137655  0.3991503173764741  0.5083727720031845
  0.4999816267675001  0.0657681958775882  0.5066806461190296
  0.9999979091841311  0.1213220354474629  0.2126893053694872
  0.0000025363182914  0.7880231928500265  0.2126806882301793
  0.0000008602535573  0.4547066972330924  0.2126907789460759
  0.4999995664309296  0.9547046444302865  0.2126918748513376
  0.5000013956791847  0.6213229748055085  0.2126896617376914
  0.5000025697204151  0.2880236042414239  0.2126794080216570
  0.0000030994030311  0.8993463180551871  0.2816124939516200
  0.0000060643411715  0.2326126038920364  0.2815898695662966
  0.9999991267199633  0.5660289952817692  0.2816565523669325
  0.5000018076315698  0.0660300913385257  0.2816570055857071
  0.5000065430319154  0.3993467610632209  0.2816112993689188
  0.5000062448191329  0.7326118611154655  0.2815905452580125
  0.0000014870118363  0.0104884710037467  0.3517496457397371
  0.0000040781235171  0.3436619575173125  0.3515979151351658
  0.0000054291987368  0.6772553900877583  0.3517616770428944
  0.5000017049874970  0.8436618615749438  0.3515984555379958
  0.5000114209590976  0.5104873949671571  0.3517491438362157
  0.5000006032796165  0.1772556885664613  0.3517607778662040
  0.0000140569961857  0.5664134610866469  0.4214427523154427
  0.0000049709037526  0.2329681654750217  0.4216389829879432
  0.9999935268043600  0.8991905187094176  0.4210777985567802
  0.4999888025148138  0.0664142281422357  0.4214431688579339
  0.5000086352760462  0.3991903642892822  0.4210769657354376
  0.5000020891711259  0.7329686313984567  0.4216392774628659
  0.4999941189286972  0.9549216690624007  0.4905330931554559
  0.5000029586059185  0.2883893228215157  0.4919299911829924
  0.5000244324863772  0.6224522655028366  0.4921115993662042
  0.0000111198173016  0.7883886460828080  0.4919300895128984
  0.0000078931539136  0.4549214796788732  0.4905320580070978
  0.9999828385846428  0.1224551072572879  0.4921134999319179
  0.5000048414763754  0.9547952146761389  0.1819952112501539
  0.9999993998365966  0.1212478280497820  0.1819929021697391
  0.4999991246653863  0.2880718433031575  0.1819828420840750
  0.0000037940940416  0.4547972665837605  0.1819941355586039
  0.5000036561524368  0.6212510216831575  0.1819929749747189
  0.0000051669790793  0.7880692466371073  0.1819839288016709
 
  0.00000000E+00  0.00000000E+00  0.00000000E+00
  0.00000000E+00  0.00000000E+00  0.00000000E+00
  0.00000000E+00  0.00000000E+00  0.00000000E+00
  0.00000000E+00  0.00000000E+00  0.00000000E+00
  0.00000000E+00  0.00000000E+00  0.00000000E+00
  0.00000000E+00  0.00000000E+00  0.00000000E+00
  0.00000000E+00  0.00000000E+00  0.00000000E+00
  0.00000000E+00  0.00000000E+00  0.00000000E+00
  0.00000000E+00  0.00000000E+00  0.00000000E+00
  0.00000000E+00  0.00000000E+00  0.00000000E+00
  0.00000000E+00  0.00000000E+00  0.00000000E+00
  0.00000000E+00  0.00000000E+00  0.00000000E+00
  0.00000000E+00  0.00000000E+00  0.00000000E+00
  0.00000000E+00  0.00000000E+00  0.00000000E+00
  0.00000000E+00  0.00000000E+00  0.00000000E+00
  0.00000000E+00  0.00000000E+00  0.00000000E+00
  0.00000000E+00  0.00000000E+00  0.00000000E+00
  0.00000000E+00  0.00000000E+00  0.00000000E+00
  0.00000000E+00  0.00000000E+00  0.00000000E+00
  0.00000000E+00  0.00000000E+00  0.00000000E+00
  0.00000000E+00  0.00000000E+00  0.00000000E+00
  0.00000000E+00  0.00000000E+00  0.00000000E+00
  0.00000000E+00  0.00000000E+00  0.00000000E+00
  0.00000000E+00  0.00000000E+00  0.00000000E+00
  0.00000000E+00  0.00000000E+00  0.00000000E+00
  0.00000000E+00  0.00000000E+00  0.00000000E+00
  0.00000000E+00  0.00000000E+00  0.00000000E+00
  0.00000000E+00  0.00000000E+00  0.00000000E+00
  0.00000000E+00  0.00000000E+00  0.00000000E+00
  0.00000000E+00  0.00000000E+00  0.00000000E+00
  0.00000000E+00  0.00000000E+00  0.00000000E+00
  0.00000000E+00  0.00000000E+00  0.00000000E+00
  0.00000000E+00  0.00000000E+00  0.00000000E+00
  0.00000000E+00  0.00000000E+00  0.00000000E+00
  0.00000000E+00  0.00000000E+00  0.00000000E+00
  0.00000000E+00  0.00000000E+00  0.00000000E+00
  0.00000000E+00  0.00000000E+00  0.00000000E+00
  0.00000000E+00  0.00000000E+00  0.00000000E+00
  0.00000000E+00  0.00000000E+00  0.00000000E+00
  0.00000000E+00  0.00000000E+00  0.00000000E+00
  0.00000000E+00  0.00000000E+00  0.00000000E+00
  0.00000000E+00  0.00000000E+00  0.00000000E+00
  0.00000000E+00  0.00000000E+00  0.00000000E+00
  0.00000000E+00  0.00000000E+00  0.00000000E+00
  0.00000000E+00  0.00000000E+00  0.00000000E+00
  0.00000000E+00  0.00000000E+00  0.00000000E+00
  0.00000000E+00  0.00000000E+00  0.00000000E+00
  0.00000000E+00  0.00000000E+00  0.00000000E+00
  0.00000000E+00  0.00000000E+00  0.00000000E+00
  0.00000000E+00  0.00000000E+00  0.00000000E+00
  0.00000000E+00  0.00000000E+00  0.00000000E+00
  0.00000000E+00  0.00000000E+00  0.00000000E+00
  0.00000000E+00  0.00000000E+00  0.00000000E+00
  0.00000000E+00  0.00000000E+00  0.00000000E+00
  0.00000000E+00  0.00000000E+00  0.00000000E+00
  0.00000000E+00  0.00000000E+00  0.00000000E+00
  0.00000000E+00  0.00000000E+00  0.00000000E+00
  0.00000000E+00  0.00000000E+00  0.00000000E+00
  0.00000000E+00  0.00000000E+00  0.00000000E+00
  0.00000000E+00  0.00000000E+00  0.00000000E+00
  0.00000000E+00  0.00000000E+00  0.00000000E+00
  0.00000000E+00  0.00000000E+00  0.00000000E+00
  0.00000000E+00  0.00000000E+00  0.00000000E+00
  0.00000000E+00  0.00000000E+00  0.00000000E+00
  0.00000000E+00  0.00000000E+00  0.00000000E+00
  0.00000000E+00  0.00000000E+00  0.00000000E+00
  0.00000000E+00  0.00000000E+00  0.00000000E+00
  0.00000000E+00  0.00000000E+00  0.00000000E+00
  0.00000000E+00  0.00000000E+00  0.00000000E+00
  0.00000000E+00  0.00000000E+00  0.00000000E+00
  0.00000000E+00  0.00000000E+00  0.00000000E+00
  0.00000000E+00  0.00000000E+00  0.00000000E+00
  0.00000000E+00  0.00000000E+00  0.00000000E+00
  0.00000000E+00  0.00000000E+00  0.00000000E+00
  0.00000000E+00  0.00000000E+00  0.00000000E+00
  0.00000000E+00  0.00000000E+00  0.00000000E+00
  0.00000000E+00  0.00000000E+00  0.00000000E+00
  0.00000000E+00  0.00000000E+00  0.00000000E+00
  0.00000000E+00  0.00000000E+00  0.00000000E+00
  0.00000000E+00  0.00000000E+00  0.00000000E+00
  0.00000000E+00  0.00000000E+00  0.00000000E+00
  0.00000000E+00  0.00000000E+00  0.00000000E+00
  0.00000000E+00  0.00000000E+00  0.00000000E+00
  0.00000000E+00  0.00000000E+00  0.00000000E+00
  0.00000000E+00  0.00000000E+00  0.00000000E+00
  0.00000000E+00  0.00000000E+00  0.00000000E+00
  0.00000000E+00  0.00000000E+00  0.00000000E+00
  0.00000000E+00  0.00000000E+00  0.00000000E+00
  0.00000000E+00  0.00000000E+00  0.00000000E+00
  0.00000000E+00  0.00000000E+00  0.00000000E+00
  0.00000000E+00  0.00000000E+00  0.00000000E+00
  0.00000000E+00  0.00000000E+00  0.00000000E+00
  0.00000000E+00  0.00000000E+00  0.00000000E+00
  0.00000000E+00  0.00000000E+00  0.00000000E+00
  0.00000000E+00  0.00000000E+00  0.00000000E+00
  0.00000000E+00  0.00000000E+00  0.00000000E+00
  0.00000000E+00  0.00000000E+00  0.00000000E+00
  0.00000000E+00  0.00000000E+00  0.00000000E+00
  0.00000000E+00  0.00000000E+00  0.00000000E+00
  0.00000000E+00  0.00000000E+00  0.00000000E+00
  0.00000000E+00  0.00000000E+00  0.00000000E+00
  0.00000000E+00  0.00000000E+00  0.00000000E+00
  0.00000000E+00  0.00000000E+00  0.00000000E+00
  0.00000000E+00  0.00000000E+00  0.00000000E+00
  0.00000000E+00  0.00000000E+00  0.00000000E+00
  0.00000000E+00  0.00000000E+00  0.00000000E+00
