Silicon carbide - alpha III             
    1.000000000000000     
     3.0729994773999998    0.0000000000000000    0.0000000000000000
     0.0000000000000000   15.9677772521999994    0.0000000000000000
     0.0000000000000000    0.0000000000000000   36.0000000000000000
   Si   C    H 
   30    30     6
Direct
  0.0000020560317354  0.8991651671498068  0.2292479685933492
  0.0000017668410400  0.5658172512676992  0.2292765679780456
  0.0000026124197934  0.2324559102615745  0.2292307439103458
  0.4999988267937626  0.0658163114284797  0.2292771034684707
  0.5000031821256854  0.7324559151400322  0.2292315754421193
  0.5000029736932530  0.3991656406376491  0.2292466828634476
  0.0000068907602845  0.0104903202676654  0.2992354197779001
  0.0000063925933468  0.3437142281272402  0.2991629650929659
  0.0000075741549972  0.6771963669580352  0.2992476721097121
  0.5000053289206111  0.8437135775919844  0.2991635524247254
  0.5000062578882155  0.5104885813071754  0.2992347476745968
  0.5000054824964683  0.1771970021361604  0.2992467889133685
 -0.0000006263267212  0.8991235871007761  0.3689189614071486
  0.0000021890790058  0.2327733507920262  0.3692222625411196
  0.0000101699382377  0.5662032726567631  0.3690490758422151
  0.4999992193108466  0.0662044533904683  0.3690499628990118
  0.5000080012051391  0.3991224016548071  0.3689178502647802
  0.5000036158523592  0.7327737477369416  0.3692229784556630
 -0.0000114485135165  0.1220757680996709  0.4390059155852316
  0.0000076683824325  0.4547471059688085  0.4384322145987734
  0.0000078545600301  0.7884745108228703  0.4394401377183082
  0.5000143653831657  0.6220753270401242  0.4390056020742094
  0.5000006446864753  0.2884746140728612  0.4394401716297020
  0.4999927512481260  0.9547484790672950  0.4384327347707989
 -0.0000018266294519  0.8991502208445852  0.5083726564523628
  0.0000004865946853  0.2344299783414596  0.5104097359865550
  0.0000250993608189  0.5657659308815347  0.5066799999084506
  0.5000140024481391  0.7344249247100897  0.5104093904310351
  0.5000070692137657  0.3991503173764758  0.5083727720031880
  0.4999816267674987  0.0657681958775881  0.5066806461190289
 -0.0000020908158682  0.1213220354474623  0.2126893053694884
  0.0000025363182939  0.7880231928500265  0.2126806882301803
  0.0000008602535554  0.4547066972330960  0.2126907789460773
  0.4999995664309293  0.9547046444302867  0.2126918748513394
  0.5000013956791848  0.6213229748055084  0.2126896617376892
  0.5000025697204160  0.2880236042414254  0.2126794080216579
  0.0000030994030297  0.8993463180551868  0.2816124939516214
  0.0000060643411745  0.2326126038920388  0.2815898695662961
 -0.0000008732800398  0.5660289952817684  0.2816565523669347
  0.5000018076315678  0.0660300913385240  0.2816570055857052
  0.5000065430319167  0.3993467610632205  0.2816112993689154
  0.5000062448191310  0.7326118611154626  0.2815905452580130
  0.0000014870118368  0.0104884710037450  0.3517496457397366
  0.0000040781235180  0.3436619575173160  0.3515979151351668
  0.0000054291987393  0.6772553900877548  0.3517616770428948
  0.5000017049874943  0.8436618615749418  0.3515984555379952
  0.5000114209590975  0.5104873949671591  0.3517491438362185
  0.5000006032796170  0.1772556885664593  0.3517607778662064
  0.0000140569961865  0.5664134610866438  0.4214427523154438
  0.0000049709037522  0.2329681654750212  0.4216389829879400
 -0.0000064731956430  0.8991905187094184  0.4210777985567813
  0.4999888025148169  0.0664142281422340  0.4214431688579365
  0.5000086352760430  0.3991903642892812  0.4210769657354391
  0.5000020891711251  0.7329686313984535  0.4216392774628635
  0.4999941189286963  0.9549216690624025  0.4905330931554525
  0.5000029586059185  0.2883893228215155  0.4919299911829955
  0.5000244324863745  0.6224522655028398  0.4921115993662070
  0.0000111198173043  0.7883886460828078  0.4919300895128974
  0.0000078931539151  0.4549214796788700  0.4905320580070965
 -0.0000171614153599  0.1224551072572889  0.4921134999319213
  0.5000048414763723  0.9547952146761404  0.1819952112501558
 -0.0000006001634041  0.1212478280497825  0.1819929021697373
  0.4999991246653861  0.2880718433031571  0.1819828420840783
  0.0000037940940399  0.4547972665837587  0.1819941355586012
  0.5000036561524339  0.6212510216831543  0.1819929749747174
  0.0000051669790796  0.7880692466371058  0.1819839288016682
 