generated by phonopy
   1.0
     3.0899999141999999    0.0000000000000000    0.0000000000000000
     0.0000000000000000   11.2700004578000001    0.0000000000000000
     0.0000000000000000    0.0000000000000000   39.2999992371000033
Ga O Si C H
  16   24   20   20    4
Direct
  0.2519334572165810  0.3750232120336396  0.5594176478330932
  0.2519158130944273  0.8750285322816693  0.5594174374362837
  0.6551013572797221  0.2545372233338166  0.7117248320606006
  0.6550996337845977  0.7545427050726277  0.7117247367329692
  0.6565263353014801  0.0046630908060428  0.6603988045999901
  0.6565217831684301  0.5046684081510174  0.6603986417970107
  0.1541573499030753  0.3939277785734991  0.8274853357122020
  0.1541717058239609  0.8939280994705653  0.8274850928001598
  0.1541611887459662  0.2605635425610671  0.6362286613258906
  0.1541611693110888  0.7605657898643309  0.6362281646968340
  0.6550154110867106  0.1446772229243872  0.7901024295328839
  0.6549914364258141  0.6446764812880499  0.7901037944773157
  0.6503090373490682  0.1160279694508611  0.5788251389339982
  0.6503337023569270  0.6160311663922197  0.5788248625349054
  0.1554379805409272  0.4929592207792441  0.7381675447951559
  0.1554486534340490  0.9929603729816334  0.7381676116267861
  0.1528395171844280  0.5087723928524859  0.5841211541386507
  0.1528205415879811  0.0087717656919371  0.5841211912956557
  0.6553816755317035  0.3884110795557537  0.7383597386518270
  0.6553881647742169  0.8884103467324367  0.7383599126465779
  0.6533678402183468  0.3665990819777167  0.6353340261451021
  0.6533720700943357  0.8665993859973279  0.6353344500425187
  0.1549282450031247  0.2406417019193273  0.8015902191856122
  0.1549131002950087  0.7406391209922890  0.8015906026096359
  0.1563623438668722  0.0067728312762864  0.6871750064623083
  0.1563582129343172  0.5067752948533999  0.6871751109523031
  0.7604499512849627  0.3743676769891379  0.5311344547004666
  0.7604349119107655  0.8743667786724028  0.5311337806989768
  0.1551333955515588  0.2493958600865100  0.6860427507622010
  0.1551321718367273  0.7493960418642913  0.6860426559728610
  0.4833647924086538  0.1269218709564433  0.5317785579932411
  0.4833639528391623  0.6269238274055948  0.5317782433585577
  0.1551767390449253  0.0204241748321635  0.7885698704259244
  0.1551669562477304  0.5204235961163484  0.7885696278813350
  0.1601889667118614  0.2405076176092332  0.5851238838096559
  0.1601873550371737  0.7405064919276273  0.5851243952063707
  0.6597390809013849  0.1390128524966120  0.6318463472512293
  0.6597525175535895  0.6381248050112871  0.6318467506618148
  0.6551976464214011  0.1226810311494353  0.7406022345673154
  0.6551918128113955  0.6226778042560713  0.7406028826973279
  0.8557297580729140  0.8800587907276494  0.2353404877130688
  0.8557313722545559  0.3800601229885163  0.2353403271237104
  0.3560361168935010  0.1300796765599815  0.2353426817064849
  0.3560242416543451  0.6300774822508964  0.2353414346041026
  0.8564104611227041  0.0435536787113316  0.2991086007311053
  0.8564088784524689  0.5435561900894751  0.2991081515031254
  0.3553179918933551  0.7935684046339720  0.2991228866752785
  0.3553115843431831  0.2935668683401926  0.2991226447883308
  0.8536520764084428  0.3768220516145019  0.3627197140107778
  0.8536656542680050  0.8768208250946813  0.3627194880400447
  0.3577659838605757  0.1267268194077706  0.3626936008629120
  0.3577611948848630  0.6267236254745232  0.3626948146218574
  0.8645768966278513  0.2130100836922785  0.4265008384585906
  0.8645730949020529  0.7130087307938852  0.4265003894703633
  0.3479058163700119  0.9640098488426008  0.4262775315810577
  0.3478857385141903  0.4640057842499677  0.4262777235263137
  0.8290658391905653  0.3788689495381712  0.4877775740141492
  0.8290585733015388  0.8788674548719916  0.4877781539148892
  0.3863209798822406  0.6310379947258679  0.4915168816147353
  0.3863217242360594  0.1310394255381361  0.4915163892185251
  0.8560042656380947  0.2152471777227534  0.2207052110298446
  0.8559905702854176  0.7152526554094403  0.2207060706839360
  0.3557854244136890  0.9652610799151632  0.2207135023429558
  0.3558011128298614  0.4652587958019244  0.2207136814620021
  0.8554798369610500  0.3784322602377987  0.2834823859525384
  0.8554907097491810  0.8784319624134656  0.2834818237306531
  0.3562305055573797  0.1284779658362073  0.2834808848651031
  0.3562368762502631  0.6284754179448692  0.2834803920526068
  0.8571227137559493  0.0417252506483039  0.3473500618347896
  0.8571137573980064  0.5417239015663105  0.3473497810520172
  0.3542555746943228  0.7917550671397574  0.3473937640776119
  0.3542608405016667  0.2917607869369501  0.3473942559607858
  0.8503967414045550  0.8786442223749440  0.4108266555609942
  0.8503854147288934  0.3786411472196162  0.4108263918376621
  0.3618079801764355  0.1284865091468289  0.4107420648269874
  0.3617990263750918  0.6284848202407630  0.4107420888705807
  0.3347445340060661  0.4654769601131663  0.4748491225824569
  0.3347344209677536  0.9654771759449170  0.4748498639634938
  0.8782938751528159  0.7152958181706269  0.4745597777351923
  0.8782934202172878  0.2152976434277150  0.4745596767981864
  0.8563047244259905  0.2151220840953218  0.1925202314175607
  0.8562978537622413  0.7151206429915055  0.1925204237729884
  0.3558166224440190  0.4651348371110778  0.1925290863775003
  0.3558092412562446  0.9651380738394452  0.1925299021294681
