POSCAR file written by OVITO Basic 3.12.
    1.000000000000000     
     3.0938592337511093    0.0000000000000000    0.0000000035914225
    -1.5469296168755546    2.6793534888093999   -0.0000000017957113
     0.0000000123394824    0.0000000000000000   10.1286394204699413
   Si   C 
     4     4
Direct
  0.9999790479223947  0.0000083224410190  0.1878958825434367
  0.9999707254813828  0.9999916775589810  0.6878958825434367
  0.3333135227707658  0.6666768183481366  0.4378469770043480
  0.6666367044226291  0.3333231816518634  0.9378469770043480
  0.9999708836278742  0.9999915385630089  0.0004492940257705
  0.9999793450648653  0.0000084614369911  0.5004492940257705
  0.3333132711548359  0.6666767715995974  0.2498078464264495
  0.6666364995552385  0.3333232284004026  0.7498078464264495
 
  0.00000000E+00  0.00000000E+00  0.00000000E+00
  0.00000000E+00  0.00000000E+00  0.00000000E+00
  0.00000000E+00  0.00000000E+00  0.00000000E+00
  0.00000000E+00  0.00000000E+00  0.00000000E+00
  0.00000000E+00  0.00000000E+00  0.00000000E+00
  0.00000000E+00  0.00000000E+00  0.00000000E+00
  0.00000000E+00  0.00000000E+00  0.00000000E+00
  0.00000000E+00  0.00000000E+00  0.00000000E+00
