Si C 
 1.0000000000000000
     3.0938592337511093    0.0000000000000000    0.0000000035914225
    -1.5469296168755546    2.6793534888093999   -0.0000000017957113
     0.0000000123394824    0.0000000000000000   10.1286394204699413
 Si  C  
   4   4
Cartesian
  3.0937815390603847  0.0000222987613797  1.9031296464647751
  1.5468519283545934  2.6793311900480203  6.9674493549040344
 -0.0000769896258473  1.7862628591494305  4.4347941514197453
  1.5468526334194483  0.8930906296599697  9.4991138634504289
  1.5468526241718266  2.6793308176286774  0.0045507389764225
  3.0937822472171228  0.0000226711807224  5.0688704510071050
 -0.0000776980937211  1.7862627338935686  2.5302136008575471
  1.5468519249515746  0.8930907549158312  7.5945333128882293
Cartesian
  0.0000000000000000  0.0000000000000000  0.0000000000000000
  0.0000000000000000  0.0000000000000000  0.0000000000000000
  0.0000000000000000  0.0000000000000000  0.0000000000000000
  0.0000000000000000  0.0000000000000000  0.0000000000000000
  0.0000000000000000  0.0000000000000000  0.0000000000000000
  0.0000000000000000  0.0000000000000000  0.0000000000000000
  0.0000000000000000  0.0000000000000000  0.0000000000000000
  0.0000000000000000  0.0000000000000000  0.0000000000000000
