Ga20 Si280 C280 O30
1.0
   3.0756941496733123    0.0000000000000000    0.0000000000000002
   0.0000000000000060   37.2908097504357272    0.0000000000000023
   0.0000000000000000    0.0000000000000000   63.8601048761004648
Ga Si C O
20 280 280 30
direct
   0.1467026107658987    0.7065947784682035    0.9278829157498398 Ga3+
   0.7467026107658983    0.5065947784682034    0.9278829157498398 Ga3+
   0.3467026107658984    0.3065947784682035    0.9278829157498398 Ga3+
   0.9467026107658983    0.1065947784682035    0.9278829157498398 Ga3+
   0.5467026107658984    0.9065947784682035    0.9278829157498398 Ga3+
   0.6099641552115316    0.7800716895769375    0.9283163731674691 Ga3+
   0.2099641552115314    0.5800716895769374    0.9283163731674691 Ga3+
   0.8099641552115313    0.3800716895769375    0.9283163731674691 Ga3+
   0.4099641552115313    0.1800716895769376    0.9283163731674691 Ga3+
   0.0099641552115313    0.9800716895769376    0.9283163731674691 Ga3+
   0.6781802214123953    0.6436395571752097    0.8996932699240776 Ga3+
   0.2781802214123953    0.4436395571752096    0.8996932699240776 Ga3+
   0.8781802214123949    0.2436395571752097    0.8996932699240776 Ga3+
   0.4781802214123950    0.0436395571752097    0.8996932699240776 Ga3+
   0.0781802214123951    0.8436395571752097    0.8996932699240776 Ga3+
   0.1249480846814835    0.7501038306370328    0.8829454001698314 Ga3+
   0.7249480846814836    0.5501038306370326    0.8829454001698314 Ga3+
   0.3249480846814837    0.3501038306370327    0.8829454001698314 Ga3+
   0.9249480846814838    0.1501038306370327    0.8829454001698314 Ga3+
   0.5249480846814837    0.9501038306370325    0.8829454001698314 Ga3+
   0.9999999999999989    0.9047619047619049    0.1736327207779917 Si
   0.4999999999999992    0.8333333333333333    0.1736327207779917 Si
   0.9999999999999986    0.7619047619047616    0.1736327207779917 Si
   0.4999999999999997    0.6904761904761905    0.1736327207779917 Si
   0.9999999999999987    0.6190476190476191    0.1736327207779917 Si
   0.4999999999999991    0.5476190476190476    0.1736327207779917 Si
   0.9999999999999991    0.4761904761904762    0.1736327207779917 Si
   0.4999999999999993    0.4047619047619048    0.1736327207779917 Si
   0.9999999999999993    0.3333333333333334    0.1736327207779917 Si
   0.4999999999999994    0.2619047619047619    0.1736327207779917 Si
   0.9999999999999992    0.1904761904761905    0.1736327207779917 Si
   0.4999999999999993    0.1190476190476190    0.1736327207779917 Si
   0.9999999999999991    0.0476190476190476    0.1736327207779917 Si
   0.4999999999999997    0.9761904761904762    0.1736327207779917 Si
   0.4999999999999991    0.8809523809523810    0.0947834415641636 Si
   0.9999999999999996    0.8095238095238095    0.0947834415641636 Si
   0.4999999999999994    0.7380952380952380    0.0947834415641636 Si
   0.9999999999999999    0.6666666666666666    0.0947834415641636 Si
   0.4999999999999991    0.5952380952380953    0.0947834415641636 Si
   0.9999999999999999    0.5238095238095237    0.0947834415641636 Si
   0.4999999999999994    0.4523809523809524    0.0947834415641636 Si
   0.9999999999999994    0.3809523809523810    0.0947834415641636 Si
   0.4999999999999996    0.3095238095238095    0.0947834415641636 Si
   0.0000000000000000    0.2380952380952381    0.0947834415641636 Si
   0.4999999999999997    0.1666666666666667    0.0947834415641636 Si
   0.0000000000000000    0.0952380952380953    0.0947834415641636 Si
   0.4999999999999997    0.0238095238095238    0.0947834415641636 Si
   0.9999999999999987    0.9523809523809523    0.0947834415641636 Si
   0.4999999999999980    0.9285714285714285    0.2130490969804444 Si
   0.9999999999999999    0.8571428571428572    0.2130490969804444 Si
   0.4999999999999993    0.7857142857142856    0.2130490969804444 Si
   0.0000000000000002    0.7142857142857141    0.2130490969804444 Si
   0.4999999999999998    0.6428571428571429    0.2130490969804444 Si
   0.0000000000000002    0.5714285714285714    0.2130490969804444 Si
   0.4999999999999992    0.4999999999999999    0.2130490969804444 Si
   0.9999999999999997    0.4285714285714285    0.2130490969804444 Si
   0.4999999999999999    0.3571428571428572    0.2130490969804444 Si
   0.0000000000000001    0.2857142857142857    0.2130490969804444 Si
   0.4999999999999998    0.2142857142857142    0.2130490969804444 Si
   0.0000000000000000    0.1428571428571428    0.2130490969804444 Si
   0.4999999999999998    0.0714285714285714    0.2130490969804444 Si
   0.0000000000000000    0.0000000000000000    0.2130490969804444 Si
   0.4999999999999980    0.9285714285714285    0.1341998177666161 Si
   0.9999999999999999    0.8571428571428572    0.1341998177666161 Si
   0.4999999999999993    0.7857142857142856    0.1341998177666161 Si
   0.0000000000000002    0.7142857142857141    0.1341998177666161 Si
   0.4999999999999998    0.6428571428571429    0.1341998177666161 Si
   0.0000000000000002    0.5714285714285714    0.1341998177666161 Si
   0.4999999999999992    0.4999999999999999    0.1341998177666161 Si
   0.9999999999999997    0.4285714285714285    0.1341998177666161 Si
   0.4999999999999999    0.3571428571428572    0.1341998177666161 Si
   0.0000000000000001    0.2857142857142857    0.1341998177666161 Si
   0.4999999999999998    0.2142857142857142    0.1341998177666161 Si
   0.0000000000000000    0.1428571428571428    0.1341998177666161 Si
   0.4999999999999998    0.0714285714285714    0.1341998177666161 Si
   0.0000000000000000    0.0000000000000000    0.1341998177666161 Si
   0.9999999999999989    0.9047619047619049    0.3313312792056482 Si
   0.4999999999999992    0.8333333333333333    0.3313312792056482 Si
   0.9999999999999986    0.7619047619047616    0.3313312792056482 Si
   0.4999999999999997    0.6904761904761905    0.3313312792056482 Si
   0.9999999999999987    0.6190476190476191    0.3313312792056482 Si
   0.4999999999999991    0.5476190476190476    0.3313312792056482 Si
   0.9999999999999991    0.4761904761904762    0.3313312792056482 Si
   0.4999999999999993    0.4047619047619048    0.3313312792056482 Si
   0.9999999999999993    0.3333333333333334    0.3313312792056482 Si
   0.4999999999999994    0.2619047619047619    0.3313312792056482 Si
   0.9999999999999992    0.1904761904761905    0.3313312792056482 Si
   0.4999999999999993    0.1190476190476190    0.3313312792056482 Si
   0.9999999999999991    0.0476190476190476    0.3313312792056482 Si
   0.4999999999999997    0.9761904761904762    0.3313312792056482 Si
   0.4999999999999991    0.8809523809523810    0.2524819999918201 Si
   0.9999999999999996    0.8095238095238095    0.2524819999918201 Si
   0.4999999999999994    0.7380952380952380    0.2524819999918201 Si
   0.9999999999999999    0.6666666666666666    0.2524819999918201 Si
   0.4999999999999991    0.5952380952380953    0.2524819999918201 Si
   0.9999999999999999    0.5238095238095237    0.2524819999918201 Si
   0.4999999999999994    0.4523809523809524    0.2524819999918201 Si
   0.9999999999999994    0.3809523809523810    0.2524819999918201 Si
   0.4999999999999996    0.3095238095238095    0.2524819999918201 Si
   0.0000000000000000    0.2380952380952381    0.2524819999918201 Si
   0.4999999999999997    0.1666666666666667    0.2524819999918201 Si
   0.0000000000000000    0.0952380952380953    0.2524819999918201 Si
   0.4999999999999997    0.0238095238095238    0.2524819999918201 Si
   0.9999999999999987    0.9523809523809523    0.2524819999918201 Si
   0.4999999999999980    0.9285714285714285    0.3707476554081010 Si
   0.9999999999999999    0.8571428571428572    0.3707476554081010 Si
   0.4999999999999993    0.7857142857142856    0.3707476554081010 Si
   0.0000000000000002    0.7142857142857141    0.3707476554081010 Si
   0.4999999999999998    0.6428571428571429    0.3707476554081010 Si
   0.0000000000000002    0.5714285714285714    0.3707476554081010 Si
   0.4999999999999992    0.4999999999999999    0.3707476554081010 Si
   0.9999999999999997    0.4285714285714285    0.3707476554081010 Si
   0.4999999999999999    0.3571428571428572    0.3707476554081010 Si
   0.0000000000000001    0.2857142857142857    0.3707476554081010 Si
   0.4999999999999998    0.2142857142857142    0.3707476554081010 Si
   0.0000000000000000    0.1428571428571428    0.3707476554081010 Si
   0.4999999999999998    0.0714285714285714    0.3707476554081010 Si
   0.0000000000000000    0.0000000000000000    0.3707476554081010 Si
   0.4999999999999980    0.9285714285714285    0.2918983761942726 Si
   0.9999999999999999    0.8571428571428572    0.2918983761942726 Si
   0.4999999999999993    0.7857142857142856    0.2918983761942726 Si
   0.0000000000000002    0.7142857142857141    0.2918983761942726 Si
   0.4999999999999998    0.6428571428571429    0.2918983761942726 Si
   0.0000000000000002    0.5714285714285714    0.2918983761942726 Si
   0.4999999999999992    0.4999999999999999    0.2918983761942726 Si
   0.9999999999999997    0.4285714285714285    0.2918983761942726 Si
   0.4999999999999999    0.3571428571428572    0.2918983761942726 Si
   0.0000000000000001    0.2857142857142857    0.2918983761942726 Si
   0.4999999999999998    0.2142857142857142    0.2918983761942726 Si
   0.0000000000000000    0.1428571428571428    0.2918983761942726 Si
   0.4999999999999998    0.0714285714285714    0.2918983761942726 Si
   0.0000000000000000    0.0000000000000000    0.2918983761942726 Si
   0.9999999999999989    0.9047619047619049    0.4890298376333047 Si
   0.4999999999999992    0.8333333333333333    0.4890298376333047 Si
   0.9999999999999986    0.7619047619047616    0.4890298376333047 Si
   0.4999999999999997    0.6904761904761905    0.4890298376333047 Si
   0.9999999999999987    0.6190476190476191    0.4890298376333047 Si
   0.4999999999999991    0.5476190476190476    0.4890298376333047 Si
   0.9999999999999991    0.4761904761904762    0.4890298376333047 Si
   0.4999999999999993    0.4047619047619048    0.4890298376333047 Si
   0.9999999999999993    0.3333333333333334    0.4890298376333047 Si
   0.4999999999999994    0.2619047619047619    0.4890298376333047 Si
   0.9999999999999992    0.1904761904761905    0.4890298376333047 Si
   0.4999999999999993    0.1190476190476190    0.4890298376333047 Si
   0.9999999999999991    0.0476190476190476    0.4890298376333047 Si
   0.4999999999999997    0.9761904761904762    0.4890298376333047 Si
   0.4999999999999991    0.8809523809523810    0.4101805584194766 Si
   0.9999999999999996    0.8095238095238095    0.4101805584194766 Si
   0.4999999999999994    0.7380952380952380    0.4101805584194766 Si
   0.9999999999999999    0.6666666666666666    0.4101805584194766 Si
   0.4999999999999991    0.5952380952380953    0.4101805584194766 Si
   0.9999999999999999    0.5238095238095237    0.4101805584194766 Si
   0.4999999999999994    0.4523809523809524    0.4101805584194766 Si
   0.9999999999999994    0.3809523809523810    0.4101805584194766 Si
   0.4999999999999996    0.3095238095238095    0.4101805584194766 Si
   0.0000000000000000    0.2380952380952381    0.4101805584194766 Si
   0.4999999999999997    0.1666666666666667    0.4101805584194766 Si
   0.0000000000000000    0.0952380952380953    0.4101805584194766 Si
   0.4999999999999997    0.0238095238095238    0.4101805584194766 Si
   0.9999999999999987    0.9523809523809523    0.4101805584194766 Si
   0.4999999999999980    0.9285714285714285    0.5284462138357573 Si
   0.9999999999999999    0.8571428571428572    0.5284462138357573 Si
   0.4999999999999993    0.7857142857142856    0.5284462138357573 Si
   0.0000000000000002    0.7142857142857141    0.5284462138357573 Si
   0.4999999999999998    0.6428571428571429    0.5284462138357573 Si
   0.0000000000000002    0.5714285714285714    0.5284462138357573 Si
   0.4999999999999992    0.4999999999999999    0.5284462138357573 Si
   0.9999999999999997    0.4285714285714285    0.5284462138357573 Si
   0.4999999999999999    0.3571428571428572    0.5284462138357573 Si
   0.0000000000000001    0.2857142857142857    0.5284462138357573 Si
   0.4999999999999998    0.2142857142857142    0.5284462138357573 Si
   0.0000000000000000    0.1428571428571428    0.5284462138357573 Si
   0.4999999999999998    0.0714285714285714    0.5284462138357573 Si
   0.0000000000000000    0.0000000000000000    0.5284462138357573 Si
   0.4999999999999980    0.9285714285714285    0.4495969346219290 Si
   0.9999999999999999    0.8571428571428572    0.4495969346219290 Si
   0.4999999999999993    0.7857142857142856    0.4495969346219290 Si
   0.0000000000000002    0.7142857142857141    0.4495969346219290 Si
   0.4999999999999998    0.6428571428571429    0.4495969346219290 Si
   0.0000000000000002    0.5714285714285714    0.4495969346219290 Si
   0.4999999999999992    0.4999999999999999    0.4495969346219290 Si
   0.9999999999999997    0.4285714285714285    0.4495969346219290 Si
   0.4999999999999999    0.3571428571428572    0.4495969346219290 Si
   0.0000000000000001    0.2857142857142857    0.4495969346219290 Si
   0.4999999999999998    0.2142857142857142    0.4495969346219290 Si
   0.0000000000000000    0.1428571428571428    0.4495969346219290 Si
   0.4999999999999998    0.0714285714285714    0.4495969346219290 Si
   0.0000000000000000    0.0000000000000000    0.4495969346219290 Si
   0.9999999999999989    0.9047619047619049    0.6467283960609611 Si
   0.4999999999999992    0.8333333333333333    0.6467283960609611 Si
   0.9999999999999986    0.7619047619047616    0.6467283960609611 Si
   0.4999999999999997    0.6904761904761905    0.6467283960609611 Si
   0.9999999999999987    0.6190476190476191    0.6467283960609611 Si
   0.4999999999999991    0.5476190476190476    0.6467283960609611 Si
   0.9999999999999991    0.4761904761904762    0.6467283960609611 Si
   0.4999999999999993    0.4047619047619048    0.6467283960609611 Si
   0.9999999999999993    0.3333333333333334    0.6467283960609611 Si
   0.4999999999999994    0.2619047619047619    0.6467283960609611 Si
   0.9999999999999992    0.1904761904761905    0.6467283960609611 Si
   0.4999999999999993    0.1190476190476190    0.6467283960609611 Si
   0.9999999999999991    0.0476190476190476    0.6467283960609611 Si
   0.4999999999999997    0.9761904761904762    0.6467283960609611 Si
   0.4999999999999991    0.8809523809523810    0.5678791168471331 Si
   0.9999999999999996    0.8095238095238095    0.5678791168471331 Si
   0.4999999999999994    0.7380952380952380    0.5678791168471331 Si
   0.9999999999999999    0.6666666666666666    0.5678791168471331 Si
   0.4999999999999991    0.5952380952380953    0.5678791168471331 Si
   0.9999999999999999    0.5238095238095237    0.5678791168471331 Si
   0.4999999999999994    0.4523809523809524    0.5678791168471331 Si
   0.9999999999999994    0.3809523809523810    0.5678791168471331 Si
   0.4999999999999996    0.3095238095238095    0.5678791168471331 Si
   0.0000000000000000    0.2380952380952381    0.5678791168471331 Si
   0.4999999999999997    0.1666666666666667    0.5678791168471331 Si
   0.0000000000000000    0.0952380952380953    0.5678791168471331 Si
   0.4999999999999997    0.0238095238095238    0.5678791168471331 Si
   0.9999999999999987    0.9523809523809523    0.5678791168471331 Si
   0.4999999999999980    0.9285714285714285    0.6861447722634137 Si
   0.9999999999999999    0.8571428571428572    0.6861447722634137 Si
   0.4999999999999993    0.7857142857142856    0.6861447722634137 Si
   0.0000000000000002    0.7142857142857141    0.6861447722634137 Si
   0.4999999999999998    0.6428571428571429    0.6861447722634137 Si
   0.0000000000000002    0.5714285714285714    0.6861447722634137 Si
   0.4999999999999992    0.4999999999999999    0.6861447722634137 Si
   0.9999999999999997    0.4285714285714285    0.6861447722634137 Si
   0.4999999999999999    0.3571428571428572    0.6861447722634137 Si
   0.0000000000000001    0.2857142857142857    0.6861447722634137 Si
   0.4999999999999998    0.2142857142857142    0.6861447722634137 Si
   0.0000000000000000    0.1428571428571428    0.6861447722634137 Si
   0.4999999999999998    0.0714285714285714    0.6861447722634137 Si
   0.0000000000000000    0.0000000000000000    0.6861447722634137 Si
   0.4999999999999980    0.9285714285714285    0.6072954930495855 Si
   0.9999999999999999    0.8571428571428572    0.6072954930495855 Si
   0.4999999999999993    0.7857142857142856    0.6072954930495855 Si
   0.0000000000000002    0.7142857142857141    0.6072954930495855 Si
   0.4999999999999998    0.6428571428571429    0.6072954930495855 Si
   0.0000000000000002    0.5714285714285714    0.6072954930495855 Si
   0.4999999999999992    0.4999999999999999    0.6072954930495855 Si
   0.9999999999999997    0.4285714285714285    0.6072954930495855 Si
   0.4999999999999999    0.3571428571428572    0.6072954930495855 Si
   0.0000000000000001    0.2857142857142857    0.6072954930495855 Si
   0.4999999999999998    0.2142857142857142    0.6072954930495855 Si
   0.0000000000000000    0.1428571428571428    0.6072954930495855 Si
   0.4999999999999998    0.0714285714285714    0.6072954930495855 Si
   0.0000000000000000    0.0000000000000000    0.6072954930495855 Si
   0.9999999999999989    0.9047619047619049    0.8044269544886176 Si
   0.4999999999999992    0.8333333333333333    0.8044269544886176 Si
   0.9999999999999986    0.7619047619047616    0.8044269544886176 Si
   0.4999999999999997    0.6904761904761905    0.8044269544886176 Si
   0.9999999999999987    0.6190476190476191    0.8044269544886176 Si
   0.4999999999999991    0.5476190476190476    0.8044269544886176 Si
   0.9999999999999991    0.4761904761904762    0.8044269544886176 Si
   0.4999999999999993    0.4047619047619048    0.8044269544886176 Si
   0.9999999999999993    0.3333333333333334    0.8044269544886176 Si
   0.4999999999999994    0.2619047619047619    0.8044269544886176 Si
   0.9999999999999992    0.1904761904761905    0.8044269544886176 Si
   0.4999999999999993    0.1190476190476190    0.8044269544886176 Si
   0.9999999999999991    0.0476190476190476    0.8044269544886176 Si
   0.4999999999999997    0.9761904761904762    0.8044269544886176 Si
   0.4999999999999991    0.8809523809523810    0.7255776752747898 Si
   0.9999999999999996    0.8095238095238095    0.7255776752747898 Si
   0.4999999999999994    0.7380952380952380    0.7255776752747898 Si
   0.9999999999999999    0.6666666666666666    0.7255776752747898 Si
   0.4999999999999991    0.5952380952380953    0.7255776752747898 Si
   0.9999999999999999    0.5238095238095237    0.7255776752747898 Si
   0.4999999999999994    0.4523809523809524    0.7255776752747898 Si
   0.9999999999999994    0.3809523809523810    0.7255776752747898 Si
   0.4999999999999996    0.3095238095238095    0.7255776752747898 Si
   0.0000000000000000    0.2380952380952381    0.7255776752747898 Si
   0.4999999999999997    0.1666666666666667    0.7255776752747898 Si
   0.0000000000000000    0.0952380952380953    0.7255776752747898 Si
   0.4999999999999997    0.0238095238095238    0.7255776752747898 Si
   0.9999999999999987    0.9523809523809523    0.7255776752747898 Si
   0.4999999999999980    0.9285714285714285    0.8438433306910702 Si
   0.9999999999999999    0.8571428571428572    0.8438433306910702 Si
   0.4999999999999993    0.7857142857142856    0.8438433306910702 Si
   0.0000000000000002    0.7142857142857141    0.8438433306910702 Si
   0.4999999999999998    0.6428571428571429    0.8438433306910702 Si
   0.0000000000000002    0.5714285714285714    0.8438433306910702 Si
   0.4999999999999992    0.4999999999999999    0.8438433306910702 Si
   0.9999999999999997    0.4285714285714285    0.8438433306910702 Si
   0.4999999999999999    0.3571428571428572    0.8438433306910702 Si
   0.0000000000000001    0.2857142857142857    0.8438433306910702 Si
   0.4999999999999998    0.2142857142857142    0.8438433306910702 Si
   0.0000000000000000    0.1428571428571428    0.8438433306910702 Si
   0.4999999999999998    0.0714285714285714    0.8438433306910702 Si
   0.0000000000000000    0.0000000000000000    0.8438433306910702 Si
   0.4999999999999980    0.9285714285714285    0.7649940514772420 Si
   0.9999999999999999    0.8571428571428572    0.7649940514772420 Si
   0.4999999999999993    0.7857142857142856    0.7649940514772420 Si
   0.0000000000000002    0.7142857142857141    0.7649940514772420 Si
   0.4999999999999998    0.6428571428571429    0.7649940514772420 Si
   0.0000000000000002    0.5714285714285714    0.7649940514772420 Si
   0.4999999999999992    0.4999999999999999    0.7649940514772420 Si
   0.9999999999999997    0.4285714285714285    0.7649940514772420 Si
   0.4999999999999999    0.3571428571428572    0.7649940514772420 Si
   0.0000000000000001    0.2857142857142857    0.7649940514772420 Si
   0.4999999999999998    0.2142857142857142    0.7649940514772420 Si
   0.0000000000000000    0.1428571428571428    0.7649940514772420 Si
   0.4999999999999998    0.0714285714285714    0.7649940514772420 Si
   0.0000000000000000    0.0000000000000000    0.7649940514772420 Si
   0.9999999999999989    0.9047619047619049    0.2032862615086077 C
   0.4999999999999992    0.8333333333333333    0.2032862615086077 C
   0.9999999999999986    0.7619047619047616    0.2032862615086077 C
   0.4999999999999997    0.6904761904761905    0.2032862615086077 C
   0.9999999999999987    0.6190476190476191    0.2032862615086077 C
   0.4999999999999991    0.5476190476190476    0.2032862615086077 C
   0.9999999999999991    0.4761904761904762    0.2032862615086077 C
   0.4999999999999993    0.4047619047619048    0.2032862615086077 C
   0.9999999999999993    0.3333333333333334    0.2032862615086077 C
   0.4999999999999994    0.2619047619047619    0.2032862615086077 C
   0.9999999999999992    0.1904761904761905    0.2032862615086077 C
   0.4999999999999993    0.1190476190476190    0.2032862615086077 C
   0.9999999999999991    0.0476190476190476    0.2032862615086077 C
   0.4999999999999997    0.9761904761904762    0.2032862615086077 C
   0.4999999999999991    0.8809523809523810    0.1244369822947795 C
   0.9999999999999996    0.8095238095238095    0.1244369822947795 C
   0.4999999999999994    0.7380952380952380    0.1244369822947795 C
   0.9999999999999999    0.6666666666666666    0.1244369822947795 C
   0.4999999999999991    0.5952380952380953    0.1244369822947795 C
   0.9999999999999999    0.5238095238095237    0.1244369822947795 C
   0.4999999999999994    0.4523809523809524    0.1244369822947795 C
   0.9999999999999994    0.3809523809523810    0.1244369822947795 C
   0.4999999999999996    0.3095238095238095    0.1244369822947795 C
   0.0000000000000000    0.2380952380952381    0.1244369822947795 C
   0.4999999999999997    0.1666666666666667    0.1244369822947795 C
   0.0000000000000000    0.0952380952380953    0.1244369822947795 C
   0.4999999999999997    0.0238095238095238    0.1244369822947795 C
   0.9999999999999987    0.9523809523809523    0.1244369822947795 C
   0.4999999999999980    0.9285714285714285    0.0849086621936415 C
   0.9999999999999999    0.8571428571428572    0.0849086621936415 C
   0.4999999999999993    0.7857142857142856    0.0849086621936415 C
   0.0000000000000002    0.7142857142857141    0.0849086621936415 C
   0.4999999999999998    0.6428571428571429    0.0849086621936415 C
   0.0000000000000002    0.5714285714285714    0.0849086621936415 C
   0.4999999999999992    0.4999999999999999    0.0849086621936415 C
   0.9999999999999997    0.4285714285714285    0.0849086621936415 C
   0.4999999999999999    0.3571428571428572    0.0849086621936415 C
   0.0000000000000001    0.2857142857142857    0.0849086621936415 C
   0.4999999999999998    0.2142857142857142    0.0849086621936415 C
   0.0000000000000000    0.1428571428571428    0.0849086621936415 C
   0.4999999999999998    0.0714285714285714    0.0849086621936415 C
   0.0000000000000000    0.0000000000000000    0.0849086621936415 C
   0.4999999999999980    0.9285714285714285    0.1637579414074697 C
   0.9999999999999999    0.8571428571428572    0.1637579414074697 C
   0.4999999999999993    0.7857142857142856    0.1637579414074697 C
   0.0000000000000002    0.7142857142857141    0.1637579414074697 C
   0.4999999999999998    0.6428571428571429    0.1637579414074697 C
   0.0000000000000002    0.5714285714285714    0.1637579414074697 C
   0.4999999999999992    0.4999999999999999    0.1637579414074697 C
   0.9999999999999997    0.4285714285714285    0.1637579414074697 C
   0.4999999999999999    0.3571428571428572    0.1637579414074697 C
   0.0000000000000001    0.2857142857142857    0.1637579414074697 C
   0.4999999999999998    0.2142857142857142    0.1637579414074697 C
   0.0000000000000000    0.1428571428571428    0.1637579414074697 C
   0.4999999999999998    0.0714285714285714    0.1637579414074697 C
   0.0000000000000000    0.0000000000000000    0.1637579414074697 C
   0.9999999999999989    0.9047619047619049    0.3609848199362641 C
   0.4999999999999992    0.8333333333333333    0.3609848199362641 C
   0.9999999999999986    0.7619047619047616    0.3609848199362641 C
   0.4999999999999997    0.6904761904761905    0.3609848199362641 C
   0.9999999999999987    0.6190476190476191    0.3609848199362641 C
   0.4999999999999991    0.5476190476190476    0.3609848199362641 C
   0.9999999999999991    0.4761904761904762    0.3609848199362641 C
   0.4999999999999993    0.4047619047619048    0.3609848199362641 C
   0.9999999999999993    0.3333333333333334    0.3609848199362641 C
   0.4999999999999994    0.2619047619047619    0.3609848199362641 C
   0.9999999999999992    0.1904761904761905    0.3609848199362641 C
   0.4999999999999993    0.1190476190476190    0.3609848199362641 C
   0.9999999999999991    0.0476190476190476    0.3609848199362641 C
   0.4999999999999997    0.9761904761904762    0.3609848199362641 C
   0.4999999999999991    0.8809523809523810    0.2821355407224360 C
   0.9999999999999996    0.8095238095238095    0.2821355407224360 C
   0.4999999999999994    0.7380952380952380    0.2821355407224360 C
   0.9999999999999999    0.6666666666666666    0.2821355407224360 C
   0.4999999999999991    0.5952380952380953    0.2821355407224360 C
   0.9999999999999999    0.5238095238095237    0.2821355407224360 C
   0.4999999999999994    0.4523809523809524    0.2821355407224360 C
   0.9999999999999994    0.3809523809523810    0.2821355407224360 C
   0.4999999999999996    0.3095238095238095    0.2821355407224360 C
   0.0000000000000000    0.2380952380952381    0.2821355407224360 C
   0.4999999999999997    0.1666666666666667    0.2821355407224360 C
   0.0000000000000000    0.0952380952380953    0.2821355407224360 C
   0.4999999999999997    0.0238095238095238    0.2821355407224360 C
   0.9999999999999987    0.9523809523809523    0.2821355407224360 C
   0.4999999999999980    0.9285714285714285    0.2426072206212980 C
   0.9999999999999999    0.8571428571428572    0.2426072206212980 C
   0.4999999999999993    0.7857142857142856    0.2426072206212980 C
   0.0000000000000002    0.7142857142857141    0.2426072206212980 C
   0.4999999999999998    0.6428571428571429    0.2426072206212980 C
   0.0000000000000002    0.5714285714285714    0.2426072206212980 C
   0.4999999999999992    0.4999999999999999    0.2426072206212980 C
   0.9999999999999997    0.4285714285714285    0.2426072206212980 C
   0.4999999999999999    0.3571428571428572    0.2426072206212980 C
   0.0000000000000001    0.2857142857142857    0.2426072206212980 C
   0.4999999999999998    0.2142857142857142    0.2426072206212980 C
   0.0000000000000000    0.1428571428571428    0.2426072206212980 C
   0.4999999999999998    0.0714285714285714    0.2426072206212980 C
   0.0000000000000000    0.0000000000000000    0.2426072206212980 C
   0.4999999999999980    0.9285714285714285    0.3214564998351262 C
   0.9999999999999999    0.8571428571428572    0.3214564998351262 C
   0.4999999999999993    0.7857142857142856    0.3214564998351262 C
   0.0000000000000002    0.7142857142857141    0.3214564998351262 C
   0.4999999999999998    0.6428571428571429    0.3214564998351262 C
   0.0000000000000002    0.5714285714285714    0.3214564998351262 C
   0.4999999999999992    0.4999999999999999    0.3214564998351262 C
   0.9999999999999997    0.4285714285714285    0.3214564998351262 C
   0.4999999999999999    0.3571428571428572    0.3214564998351262 C
   0.0000000000000001    0.2857142857142857    0.3214564998351262 C
   0.4999999999999998    0.2142857142857142    0.3214564998351262 C
   0.0000000000000000    0.1428571428571428    0.3214564998351262 C
   0.4999999999999998    0.0714285714285714    0.3214564998351262 C
   0.0000000000000000    0.0000000000000000    0.3214564998351262 C
   0.9999999999999989    0.9047619047619049    0.5186833783639206 C
   0.4999999999999992    0.8333333333333333    0.5186833783639206 C
   0.9999999999999986    0.7619047619047616    0.5186833783639206 C
   0.4999999999999997    0.6904761904761905    0.5186833783639206 C
   0.9999999999999987    0.6190476190476191    0.5186833783639206 C
   0.4999999999999991    0.5476190476190476    0.5186833783639206 C
   0.9999999999999991    0.4761904761904762    0.5186833783639206 C
   0.4999999999999993    0.4047619047619048    0.5186833783639206 C
   0.9999999999999993    0.3333333333333334    0.5186833783639206 C
   0.4999999999999994    0.2619047619047619    0.5186833783639206 C
   0.9999999999999992    0.1904761904761905    0.5186833783639206 C
   0.4999999999999993    0.1190476190476190    0.5186833783639206 C
   0.9999999999999991    0.0476190476190476    0.5186833783639206 C
   0.4999999999999997    0.9761904761904762    0.5186833783639206 C
   0.4999999999999991    0.8809523809523810    0.4398340991500925 C
   0.9999999999999996    0.8095238095238095    0.4398340991500925 C
   0.4999999999999994    0.7380952380952380    0.4398340991500925 C
   0.9999999999999999    0.6666666666666666    0.4398340991500925 C
   0.4999999999999991    0.5952380952380953    0.4398340991500925 C
   0.9999999999999999    0.5238095238095237    0.4398340991500925 C