Silicon carbide - alpha III             
    1.000000000000000     
     3.0729994773999998    0.0000000000000000    0.0000000000000000
     0.0000000000000000   15.9677772521999994    0.0000000000000000
     0.0000000000000000    0.0000000000000000   36.0000000000000000
   Ga   O 
    16    24
Direct
  0.4999943306599945  0.0816471882530294  0.6546633018730219
  0.9999975369044805  0.2409238341459314  0.6045454308932676
  0.9999861445121923  0.1244696121795243  0.7762259648167458
  0.9999936444089315  0.2363298094395176  0.7001397772301914
  0.4999768593379699  0.3952768426416569  0.6535774624430672
  0.5000272090301863  0.5057547726012146  0.5754726018866236
  0.4999785248216924  0.3021807649794894  0.7876617946247748
  0.9999963598641770  0.4585847051773015  0.7347688990418746
  0.9999975043031455  0.5816467671438019  0.6546627296804957
  0.5000030364318988  0.7409227031684864  0.6045439659237601
  0.4999928288892619  0.6244747537252877  0.7762276442272977
  0.4999958032740892  0.7363310057227750  0.7001377183317459
  0.9999949673649127  0.8952776687888857  0.6535752839890634
  0.9999758574420312  0.0057535312840500  0.5754731651130527
  0.9999248306661741  0.8021742397179921  0.7876597073966209
  0.4999994688886247  0.9585825907593630  0.7347683975146211
  0.0000008209881841  0.0169133998717470  0.6262509459326111
  0.0000439049247163  0.2317266944889127  0.5549280419228708
  0.5000034127069526  0.1822586448881793  0.6211039222328409
  0.9999957860389515  0.1247976648758211  0.6826411398503609
  0.4999868625348896  0.0662270315744422  0.7566354579051477
  0.5000072409319714  0.4035171221947351  0.5541110207763467
  0.9999759202873761  0.3504375315814201  0.6258728767862038
  0.4999952152838318  0.2957043741483290  0.6872726517813135
  0.9999480261286493  0.2331875667558023  0.7522548108205811
  0.0000289779063536  0.5605403248861762  0.5547088799404420
  0.5000060533125961  0.5169125249133586  0.6262511005597204
  0.9999938725781092  0.4602177825194644  0.6818221642493469
  0.4999974092509660  0.4065471937608436  0.7522123245166199
  0.5000151339401526  0.7316947724325189  0.5549272952162170
  0.0000006049896513  0.6822588167992336  0.6211023101281796
  0.5000002567171649  0.6247969446385184  0.6826411029425756
  0.9999928024033693  0.5662210652343020  0.7566354261799049
  0.0000018057175097  0.9035138778061906  0.5541115448031206
  0.4999948060866828  0.8504413397748678  0.6258681213335962
  0.9999984627000416  0.7957050434167172  0.6872693363737952
  0.4999598476589426  0.7331931436747965  0.7522511821877700
  0.4999765115665369  0.0605432332460580  0.5547104819089270
  0.4999959828059914  0.9602162134337817  0.6818217741648382
  0.0000003039936161  0.9065486067674300  0.7522126591842309
 
  0.00000000E+00  0.00000000E+00  0.00000000E+00
  0.00000000E+00  0.00000000E+00  0.00000000E+00
  0.00000000E+00  0.00000000E+00  0.00000000E+00
  0.00000000E+00  0.00000000E+00  0.00000000E+00
  0.00000000E+00  0.00000000E+00  0.00000000E+00
  0.00000000E+00  0.00000000E+00  0.00000000E+00
  0.00000000E+00  0.00000000E+00  0.00000000E+00
  0.00000000E+00  0.00000000E+00  0.00000000E+00
  0.00000000E+00  0.00000000E+00  0.00000000E+00
  0.00000000E+00  0.00000000E+00  0.00000000E+00
  0.00000000E+00  0.00000000E+00  0.00000000E+00
  0.00000000E+00  0.00000000E+00  0.00000000E+00
  0.00000000E+00  0.00000000E+00  0.00000000E+00
  0.00000000E+00  0.00000000E+00  0.00000000E+00
  0.00000000E+00  0.00000000E+00  0.00000000E+00
  0.00000000E+00  0.00000000E+00  0.00000000E+00
  0.00000000E+00  0.00000000E+00  0.00000000E+00
  0.00000000E+00  0.00000000E+00  0.00000000E+00
  0.00000000E+00  0.00000000E+00  0.00000000E+00
  0.00000000E+00  0.00000000E+00  0.00000000E+00
  0.00000000E+00  0.00000000E+00  0.00000000E+00
  0.00000000E+00  0.00000000E+00  0.00000000E+00
  0.00000000E+00  0.00000000E+00  0.00000000E+00
  0.00000000E+00  0.00000000E+00  0.00000000E+00
  0.00000000E+00  0.00000000E+00  0.00000000E+00
  0.00000000E+00  0.00000000E+00  0.00000000E+00
  0.00000000E+00  0.00000000E+00  0.00000000E+00
  0.00000000E+00  0.00000000E+00  0.00000000E+00
  0.00000000E+00  0.00000000E+00  0.00000000E+00
  0.00000000E+00  0.00000000E+00  0.00000000E+00
  0.00000000E+00  0.00000000E+00  0.00000000E+00
  0.00000000E+00  0.00000000E+00  0.00000000E+00
  0.00000000E+00  0.00000000E+00  0.00000000E+00
  0.00000000E+00  0.00000000E+00  0.00000000E+00
  0.00000000E+00  0.00000000E+00  0.00000000E+00
  0.00000000E+00  0.00000000E+00  0.00000000E+00
  0.00000000E+00  0.00000000E+00  0.00000000E+00
  0.00000000E+00  0.00000000E+00  0.00000000E+00
  0.00000000E+00  0.00000000E+00  0.00000000E+00
  0.00000000E+00  0.00000000E+00  0.00000000E+00
