Silicon carbide - alpha III             
    1.000000000000000     
     3.0729994773999998    0.0000000000000000    0.0000000000000000
     0.0000000000000000   15.9677772521999994    0.0000000000000000
     0.0000000000000000    0.0000000000000000   36.0000000000000000
   Ga   O   
    16    24  
Direct
  0.4999943306599960  0.0816471882530328  0.6546633018730206
 -0.0000024630955162  0.2409238341459294  0.6045454308932667
 -0.0000138554878072  0.1244696121795247  0.7762259648167439
 -0.0000063555910667  0.2363298094395180  0.7001397772301944
  0.4999768593379685  0.3952768426416549  0.6535774624430661
  0.5000272090301890  0.5057547726012114  0.5754726018866259
  0.4999785248216908  0.3021807649794891  0.7876617946247733
 -0.0000036401358248  0.4585847051773027  0.7347688990418779
 -0.0000024956968557  0.5816467671438047  0.6546627296804932
  0.5000030364318957  0.7409227031684865  0.6045439659237600
  0.4999928288892607  0.6244747537252856  0.7762276442272951
  0.4999958032740901  0.7363310057227744  0.7001377183317448
 -0.0000050326350881  0.8952776687888890  0.6535752839890614
 -0.0000241425579703  0.0057535312840481  0.5754731651130515
 -0.0000751693338276  0.8021742397179947  0.7876597073966212
  0.4999994688886268  0.9585825907593664  0.7347683975146231
  0.0000008209881871  0.0169133998717484  0.6262509459326108
  0.0000439049247178  0.2317266944889092  0.5549280419228726
  0.5000034127069535  0.1822586448881777  0.6211039222328405
 -0.0000042139610509  0.1247976648758191  0.6826411398503603
  0.4999868625348889  0.0662270315744453  0.7566354579051491
  0.5000072409319717  0.4035171221947330  0.5541110207763454
 -0.0000240797126235  0.3504375315814205  0.6258728767862021
  0.4999952152838306  0.2957043741483258  0.6872726517813099
 -0.0000519738713505  0.2331875667557995  0.7522548108205831
  0.0000289779063507  0.5605403248861743  0.5547088799404425
  0.5000060533125976  0.5169125249133559  0.6262511005597234
 -0.0000061274218898  0.4602177825194669  0.6818221642493439
  0.4999974092509630  0.4065471937608452  0.7522123245166185
  0.5000151339401498  0.7316947724325189  0.5549272952162202
  0.0000006049896503  0.6822588167992314  0.6211023101281791
  0.5000002567171621  0.6247969446385206  0.6826411029425753
 -0.0000071975966275  0.5662210652343004  0.7566354261799046
  0.0000018057175091  0.9035138778061914  0.5541115448031231
  0.4999948060866841  0.8504413397748691  0.6258681213335965
 -0.0000015372999565  0.7957050434167201  0.6872693363737973
  0.4999598476589406  0.7331931436747995  0.7522511821877723
  0.4999765115665357  0.0605432332460611  0.5547104819089244
  0.4999959828059909  0.9602162134337787  0.6818217741648361
  0.0000003039936130  0.9065486067674309  0.7522126591842286
  