Gallium trioxide, chromium(III)-doped (2
    1.000000000000000     
     3.0899999141999999    0.0000000000000000    0.0000000000000000
     0.0000000000000000   11.2700004578000001    0.0000000000000000
     0.0000000000000000    0.0000000000000000   39.2999992371000033
   Ga   O 
    16    24
Direct
  0.2519334572165803  0.3750232120336392  0.5594176478330937
  0.2519158130944277  0.8750285322816680  0.5594174374362808
  0.6551013572797189  0.2545372233338199  0.7117248320606038
  0.6550996337845945  0.7545427050726303  0.7117247367329682
  0.6565263353014785  0.0046630908060408  0.6603988045999927
  0.6565217831684294  0.5046684081510193  0.6603986417970091
  0.1541573499030733  0.3939277785734987  0.8274853357122041
  0.1541717058239627  0.8939280994705641  0.8274850928001598
  0.1541611887459666  0.2605635425610657  0.6362286613258874
  0.1541611693110880  0.7605657898643301  0.6362281646968313
  0.6550154110867084  0.1446772229243862  0.7901024295328867
  0.6549914364258171  0.6446764812880517  0.7901037944773179
  0.6503090373490679  0.1160279694508617  0.5788251389340004
  0.6503337023569244  0.6160311663922187  0.5788248625349084
  0.1554379805409241  0.4929592207792410  0.7381675447951537
  0.1554486534340498  0.9929603729816350  0.7381676116267855
  0.1528395171844252  0.5087723928524852  0.5841211541386500
  0.1528205415879782  0.0087717656919395  0.5841211912956581
  0.6553816755317001  0.3884110795557518  0.7383597386518304
  0.6553881647742159  0.8884103467324351  0.7383599126465796
  0.6533678402183440  0.3665990819777178  0.6353340261451024
  0.6533720700943348  0.8665993859973256  0.6353344500425209
  0.1549282450031271  0.2406417019193299  0.8015902191856128
  0.1549131002950119  0.7406391209922916  0.8015906026096360
  0.1563623438668742  0.0067728312762867  0.6871750064623114
  0.1563582129343146  0.5067752948533979  0.6871751109523032
  0.7604499512849614  0.3743676769891380  0.5311344547004637
  0.7604349119107638  0.8743667786724032  0.5311337806989798
  0.1551333955515588  0.2493958600865085  0.6860427507621978
  0.1551321718367262  0.7493960418642942  0.6860426559728623
  0.4833647924086506  0.1269218709564441  0.5317785579932419
  0.4833639528391629  0.6269238274055979  0.5317782433585592
  0.1551767390449257  0.0204241748321650  0.7885698704259241
  0.1551669562477329  0.5204235961163448  0.7885696278813370
  0.1601889667118641  0.2405076176092322  0.5851238838096577
  0.1601873550371735  0.7405064919276256  0.5851243952063712
  0.6597390809013817  0.1381255410863389  0.6318463472512263
  0.6597525175535921  0.6381248050112873  0.6318467506618148
  0.6551976464213993  0.1226810311494333  0.7406022345673122
  0.6551918128113954  0.6226778042560710  0.7406028826973312
 
  0.00000000E+00  0.00000000E+00  0.00000000E+00
  0.00000000E+00  0.00000000E+00  0.00000000E+00
  0.00000000E+00  0.00000000E+00  0.00000000E+00
  0.00000000E+00  0.00000000E+00  0.00000000E+00
  0.00000000E+00  0.00000000E+00  0.00000000E+00
  0.00000000E+00  0.00000000E+00  0.00000000E+00
  0.00000000E+00  0.00000000E+00  0.00000000E+00
  0.00000000E+00  0.00000000E+00  0.00000000E+00
  0.00000000E+00  0.00000000E+00  0.00000000E+00
  0.00000000E+00  0.00000000E+00  0.00000000E+00
  0.00000000E+00  0.00000000E+00  0.00000000E+00
  0.00000000E+00  0.00000000E+00  0.00000000E+00
  0.00000000E+00  0.00000000E+00  0.00000000E+00
  0.00000000E+00  0.00000000E+00  0.00000000E+00
  0.00000000E+00  0.00000000E+00  0.00000000E+00
  0.00000000E+00  0.00000000E+00  0.00000000E+00
  0.00000000E+00  0.00000000E+00  0.00000000E+00
  0.00000000E+00  0.00000000E+00  0.00000000E+00
  0.00000000E+00  0.00000000E+00  0.00000000E+00
  0.00000000E+00  0.00000000E+00  0.00000000E+00
  0.00000000E+00  0.00000000E+00  0.00000000E+00
  0.00000000E+00  0.00000000E+00  0.00000000E+00
  0.00000000E+00  0.00000000E+00  0.00000000E+00
  0.00000000E+00  0.00000000E+00  0.00000000E+00
  0.00000000E+00  0.00000000E+00  0.00000000E+00
  0.00000000E+00  0.00000000E+00  0.00000000E+00
  0.00000000E+00  0.00000000E+00  0.00000000E+00
  0.00000000E+00  0.00000000E+00  0.00000000E+00
  0.00000000E+00  0.00000000E+00  0.00000000E+00
  0.00000000E+00  0.00000000E+00  0.00000000E+00
  0.00000000E+00  0.00000000E+00  0.00000000E+00
  0.00000000E+00  0.00000000E+00  0.00000000E+00
  0.00000000E+00  0.00000000E+00  0.00000000E+00
  0.00000000E+00  0.00000000E+00  0.00000000E+00
  0.00000000E+00  0.00000000E+00  0.00000000E+00
  0.00000000E+00  0.00000000E+00  0.00000000E+00
  0.00000000E+00  0.00000000E+00  0.00000000E+00
  0.00000000E+00  0.00000000E+00  0.00000000E+00
  0.00000000E+00  0.00000000E+00  0.00000000E+00
  0.00000000E+00  0.00000000E+00  0.00000000E+00
