Gallium trioxide, chromium(III)-doped (2
    1.000000000000000     
     3.0899999141999999    0.0000000000000000    0.0000000000000000
     0.0000000000000000   11.2700004578000001    0.0000000000000000
     0.0000000000000000    0.0000000000000000   39.2999992371000033
   Ga   O    
    16    24    
Direct
  0.2519334572165810  0.3750232120336396  0.5594176478330932
  0.2519158130944273  0.8750285322816693  0.5594174374362837
  0.6551013572797221  0.2545372233338166  0.7117248320606006
  0.6550996337845977  0.7545427050726276  0.7117247367329692
  0.6565263353014802  0.0046630908060428  0.6603988045999901
  0.6565217831684301  0.5046684081510173  0.6603986417970107
  0.1541573499030753  0.3939277785734991  0.8274853357122018
  0.1541717058239609  0.8939280994705652  0.8274850928001598
  0.1541611887459662  0.2605635425610671  0.6362286613258906
  0.1541611693110888  0.7605657898643308  0.6362281646968340
  0.6550154110867107  0.1446772229243872  0.7901024295328839
  0.6549914364258141  0.6446764812880499  0.7901037944773157
  0.6503090373490682  0.1160279694508611  0.5788251389339982
  0.6503337023569271  0.6160311663922197  0.5788248625349054
  0.1554379805409272  0.4929592207792441  0.7381675447951559
  0.1554486534340490  0.9929603729816333  0.7381676116267861
  0.1528395171844280  0.5087723928524859  0.5841211541386507
  0.1528205415879811  0.0087717656919371  0.5841211912956557
  0.6553816755317035  0.3884110795557537  0.7383597386518270
  0.6553881647742169  0.8884103467324366  0.7383599126465779
  0.6533678402183468  0.3665990819777167  0.6353340261451021
  0.6533720700943357  0.8665993859973278  0.6353344500425187
  0.1549282450031247  0.2406417019193273  0.8015902191856122
  0.1549131002950087  0.7406391209922890  0.8015906026096359
  0.1563623438668722  0.0067728312762864  0.6871750064623083
  0.1563582129343172  0.5067752948533999  0.6871751109523031
  0.7604499512849627  0.3743676769891379  0.5311344547004666
  0.7604349119107655  0.8743667786724028  0.5311337806989768
  0.1551333955515588  0.2493958600865100  0.6860427507622010
  0.1551321718367273  0.7493960418642912  0.6860426559728610
  0.4833647924086538  0.1269218709564433  0.5317785579932411
  0.4833639528391623  0.6269238274055947  0.5317782433585577
  0.1551767390449253  0.0204241748321635  0.7885698704259244
  0.1551669562477304  0.5204235961163484  0.7885696278813350
  0.1601889667118614  0.2405076176092332  0.5851238838096559
  0.1601873550371737  0.7405064919276272  0.5851243952063707
  0.6597390809013849  0.1381255410863379  0.6318463472512293
  0.6597525175535897  0.6381248050112871  0.6318467506618148
  0.6551976464214011  0.1226810311494353  0.7406022345673154
  0.6551918128113955  0.6226778042560713  0.7406028826973279
