Gallium trioxide, chromium(III)-doped (2
    1.000000000000000     
     3.0899999141999999    0.0000000000000000    0.0000000000000000
     0.0000000000000000   11.2700004578000001    0.0000000000000000
     0.0000000000000000    0.0000000000000000   39.2999992371000033
   Ga   O    Si   C    H 
    16    24    20    20     4
Direct
  0.2519334572165803  0.3750232120336392  0.5594176478330937
  0.2519158130944277  0.8750285322816680  0.5594174374362808
  0.6551013572797189  0.2545372233338199  0.7117248320606038
  0.6550996337845945  0.7545427050726303  0.7117247367329682
  0.6565263353014785  0.0046630908060408  0.6603988045999927
  0.6565217831684294  0.5046684081510193  0.6603986417970091
  0.1541573499030733  0.3939277785734987  0.8274853357122041
  0.1541717058239627  0.8939280994705641  0.8274850928001598
  0.1541611887459666  0.2605635425610657  0.6362286613258874
  0.1541611693110880  0.7605657898643301  0.6362281646968313
  0.6550154110867084  0.1446772229243862  0.7901024295328867
  0.6549914364258171  0.6446764812880517  0.7901037944773179
  0.6503090373490679  0.1160279694508617  0.5788251389340004
  0.6503337023569244  0.6160311663922187  0.5788248625349084
  0.1554379805409241  0.4929592207792410  0.7381675447951537
  0.1554486534340498  0.9929603729816350  0.7381676116267855
  0.1528395171844252  0.5087723928524852  0.5841211541386500
  0.1528205415879782  0.0087717656919395  0.5841211912956581
  0.6553816755317001  0.3884110795557518  0.7383597386518304
  0.6553881647742159  0.8884103467324351  0.7383599126465796
  0.6533678402183440  0.3665990819777178  0.6353340261451024
  0.6533720700943348  0.8665993859973256  0.6353344500425209
  0.1549282450031271  0.2406417019193299  0.8015902191856128
  0.1549131002950119  0.7406391209922916  0.8015906026096360
  0.1563623438668742  0.0067728312762867  0.6871750064623114
  0.1563582129343146  0.5067752948533979  0.6871751109523032
  0.7604499512849614  0.3743676769891380  0.5311344547004637
  0.7604349119107638  0.8743667786724032  0.5311337806989798
  0.1551333955515588  0.2493958600865085  0.6860427507621978
  0.1551321718367262  0.7493960418642942  0.6860426559728623
  0.4833647924086506  0.1269218709564441  0.5317785579932419
  0.4833639528391629  0.6269238274055979  0.5317782433585592
  0.1551767390449257  0.0204241748321650  0.7885698704259241
  0.1551669562477329  0.5204235961163448  0.7885696278813370
  0.1601889667118641  0.2405076176092322  0.5851238838096577
  0.1601873550371735  0.7405064919276256  0.5851243952063712
  0.6597390809013817  0.1381255410863389  0.6318463472512263
  0.6597525175535921  0.6381248050112873  0.6318467506618148
  0.6551976464213993  0.1226810311494333  0.7406022345673122
  0.6551918128113954  0.6226778042560710  0.7406028826973312
  0.8557297580729113  0.8800587907276523  0.2353404877130671
  0.8557313722545530  0.3800601229885174  0.2353403271237084
  0.3560361168934989  0.1300796765599799  0.2353426817064843
  0.3560242416543460  0.6300774822508970  0.2353414346041021
  0.8564104611227066  0.0435536787113335  0.2991086007311026
  0.8564088784524699  0.5435561900894754  0.2991081515031269
  0.3553179918933580  0.7935684046339730  0.2991228866752778
  0.3553115843431840  0.2935668683401929  0.2991226447883335
  0.8536520764084443  0.3768220516145036  0.3627197140107796
  0.8536656542680063  0.8768208250946827  0.3627194880400424
  0.3577659838605740  0.1267268194077715  0.3626936008629116
  0.3577611948848656  0.6267236254745256  0.3626948146218609
  0.8645768966278524  0.2130100836922750  0.4265008384585940
  0.8645730949020560  0.7130087307938879  0.4265003894703625
  0.3479058163700088  0.9640098488426005  0.4262775315810572
  0.3478857385141936  0.4640057842499701  0.4262777235263115
  0.8290658391905623  0.3788689495381732  0.4877775740141459
  0.8290585733015376  0.8788674548719939  0.4877781539148884
  0.3863209798822425  0.6310379947258653  0.4915168816147357
  0.3863217242360619  0.1310394255381340  0.4915163892185248
  0.8560042656380915  0.2152471777227518  0.2207052110298449
  0.8559905702854209  0.7152526554094436  0.2207060706839385
  0.3557854244136891  0.9652610799151660  0.2207135023429529
  0.3558011128298588  0.4652587958019225  0.2207136814620014
  0.8554798369610523  0.3784322602378012  0.2834823859525386
  0.8554907097491835  0.8784319624134653  0.2834818237306536
  0.3562305055573773  0.1284779658362041  0.2834808848651065
  0.3562368762502643  0.6284754179448697  0.2834803920526099
  0.8571227137559490  0.0417252506483052  0.3473500618347884
  0.8571137573980039  0.5417239015663071  0.3473497810520172
  0.3542555746943208  0.7917550671397606  0.3473937640776086
  0.3542608405016665  0.2917607869369476  0.3473942559607863
  0.8503967414045519  0.8786442223749447  0.4108266555609958
  0.8503854147288905  0.3786411472196178  0.4108263918376593
  0.3618079801764367  0.1284865091468319  0.4107420648269908
  0.3617990263750883  0.6284848202407645  0.4107420888705775
  0.3347445340060631  0.4654769601131648  0.4748491225824552
  0.3347344209677559  0.9654771759449190  0.4748498639634917
  0.8782938751528135  0.7152958181706239  0.4745597777351946
  0.8782934202172896  0.2152976434277178  0.4745596767981866
  0.8563047244259891  0.2151220840953201  0.1925202314175607
  0.8562978537622428  0.7151206429915078  0.1925204237729901
  0.3558166224440171  0.4651348371110799  0.1925290863774975
  0.3558092412562459  0.9651380738394479  0.1925299021294649
 
  0.00000000E+00  0.00000000E+00  0.00000000E+00
  0.00000000E+00  0.00000000E+00  0.00000000E+00
  0.00000000E+00  0.00000000E+00  0.00000000E+00
  0.00000000E+00  0.00000000E+00  0.00000000E+00
  0.00000000E+00  0.00000000E+00  0.00000000E+00
  0.00000000E+00  0.00000000E+00  0.00000000E+00
  0.00000000E+00  0.00000000E+00  0.00000000E+00
  0.00000000E+00  0.00000000E+00  0.00000000E+00
  0.00000000E+00  0.00000000E+00  0.00000000E+00
  0.00000000E+00  0.00000000E+00  0.00000000E+00
  0.00000000E+00  0.00000000E+00  0.00000000E+00
  0.00000000E+00  0.00000000E+00  0.00000000E+00
  0.00000000E+00  0.00000000E+00  0.00000000E+00
  0.00000000E+00  0.00000000E+00  0.00000000E+00
  0.00000000E+00  0.00000000E+00  0.00000000E+00
  0.00000000E+00  0.00000000E+00  0.00000000E+00
  0.00000000E+00  0.00000000E+00  0.00000000E+00
  0.00000000E+00  0.00000000E+00  0.00000000E+00
  0.00000000E+00  0.00000000E+00  0.00000000E+00
  0.00000000E+00  0.00000000E+00  0.00000000E+00
  0.00000000E+00  0.00000000E+00  0.00000000E+00
  0.00000000E+00  0.00000000E+00  0.00000000E+00
  0.00000000E+00  0.00000000E+00  0.00000000E+00
  0.00000000E+00  0.00000000E+00  0.00000000E+00
  0.00000000E+00  0.00000000E+00  0.00000000E+00
  0.00000000E+00  0.00000000E+00  0.00000000E+00
  0.00000000E+00  0.00000000E+00  0.00000000E+00
  0.00000000E+00  0.00000000E+00  0.00000000E+00
  0.00000000E+00  0.00000000E+00  0.00000000E+00
  0.00000000E+00  0.00000000E+00  0.00000000E+00
  0.00000000E+00  0.00000000E+00  0.00000000E+00
  0.00000000E+00  0.00000000E+00  0.00000000E+00
  0.00000000E+00  0.00000000E+00  0.00000000E+00
  0.00000000E+00  0.00000000E+00  0.00000000E+00
  0.00000000E+00  0.00000000E+00  0.00000000E+00
  0.00000000E+00  0.00000000E+00  0.00000000E+00
  0.00000000E+00  0.00000000E+00  0.00000000E+00
  0.00000000E+00  0.00000000E+00  0.00000000E+00
  0.00000000E+00  0.00000000E+00  0.00000000E+00
  0.00000000E+00  0.00000000E+00  0.00000000E+00
  0.00000000E+00  0.00000000E+00  0.00000000E+00
  0.00000000E+00  0.00000000E+00  0.00000000E+00
  0.00000000E+00  0.00000000E+00  0.00000000E+00
  0.00000000E+00  0.00000000E+00  0.00000000E+00
  0.00000000E+00  0.00000000E+00  0.00000000E+00
  0.00000000E+00  0.00000000E+00  0.00000000E+00
  0.00000000E+00  0.00000000E+00  0.00000000E+00
  0.00000000E+00  0.00000000E+00  0.00000000E+00
  0.00000000E+00  0.00000000E+00  0.00000000E+00
  0.00000000E+00  0.00000000E+00  0.00000000E+00
  0.00000000E+00  0.00000000E+00  0.00000000E+00
  0.00000000E+00  0.00000000E+00  0.00000000E+00
  0.00000000E+00  0.00000000E+00  0.00000000E+00
  0.00000000E+00  0.00000000E+00  0.00000000E+00
  0.00000000E+00  0.00000000E+00  0.00000000E+00
  0.00000000E+00  0.00000000E+00  0.00000000E+00
  0.00000000E+00  0.00000000E+00  0.00000000E+00
  0.00000000E+00  0.00000000E+00  0.00000000E+00
  0.00000000E+00  0.00000000E+00  0.00000000E+00
  0.00000000E+00  0.00000000E+00  0.00000000E+00
  0.00000000E+00  0.00000000E+00  0.00000000E+00
  0.00000000E+00  0.00000000E+00  0.00000000E+00
  0.00000000E+00  0.00000000E+00  0.00000000E+00
  0.00000000E+00  0.00000000E+00  0.00000000E+00
  0.00000000E+00  0.00000000E+00  0.00000000E+00
  0.00000000E+00  0.00000000E+00  0.00000000E+00
  0.00000000E+00  0.00000000E+00  0.00000000E+00
  0.00000000E+00  0.00000000E+00  0.00000000E+00
  0.00000000E+00  0.00000000E+00  0.00000000E+00
  0.00000000E+00  0.00000000E+00  0.00000000E+00
  0.00000000E+00  0.00000000E+00  0.00000000E+00
  0.00000000E+00  0.00000000E+00  0.00000000E+00
  0.00000000E+00  0.00000000E+00  0.00000000E+00
  0.00000000E+00  0.00000000E+00  0.00000000E+00
  0.00000000E+00  0.00000000E+00  0.00000000E+00
  0.00000000E+00  0.00000000E+00  0.00000000E+00
  0.00000000E+00  0.00000000E+00  0.00000000E+00
  0.00000000E+00  0.00000000E+00  0.00000000E+00
  0.00000000E+00  0.00000000E+00  0.00000000E+00
  0.00000000E+00  0.00000000E+00  0.00000000E+00
  0.00000000E+00  0.00000000E+00  0.00000000E+00
  0.00000000E+00  0.00000000E+00  0.00000000E+00
  0.00000000E+00  0.00000000E+00  0.00000000E+00
  0.00000000E+00  0.00000000E+00  0.00000000E+00
