K-Spacing Value to Generate K-Mesh: 0.040
0
Monkhorst-Pack
   11   3   1
0.0  0.0  0.0
