Ga200 Si56 C56 O300
1.0
   3.0756941496733123    0.0000000000000000    0.0000000000000002
   0.0000000000000060   37.2908097504357272    0.0000000000000023
   0.0000000000000000    0.0000000000000000   65.8558184514188980
Ga Si C O
200 56 56 300
direct
   0.9648564718139427    0.0702870563721144    0.2871700605753108 Ga3+
   0.3648564718139428    0.2702870563721144    0.2871700605753106 Ga3+
   0.7648564718139430    0.4702870563721144    0.2871700605753106 Ga3+
   0.1648564718139431    0.6702870563721139    0.2871700605753107 Ga3+
   0.5648564718139432    0.8702870563721142    0.2871700605753105 Ga3+
   0.4281180162595759    0.1437639674808484    0.2875903823752675 Ga3+
   0.8281180162595762    0.3437639674808483    0.2875903823752675 Ga3+
   0.2281180162595759    0.5437639674808483    0.2875903823752674 Ga3+
   0.6281180162595761    0.7437639674808484    0.2875903823752672 Ga3+
   0.0281180162595763    0.9437639674808480    0.2875903823752672 Ga3+
   0.4963340824604398    0.0073318350791206    0.2598346818466828 Ga3+
   0.8963340824604398    0.2073318350791204    0.2598346818466826 Ga3+
   0.2963340824604400    0.4073318350791205    0.2598346818466827 Ga3+
   0.6963340824604400    0.6073318350791205    0.2598346818466826 Ga3+
   0.0963340824604402    0.8073318350791202    0.2598346818466825 Ga3+
   0.9431019457295282    0.1137961085409437    0.2435943443319891 Ga3+
   0.3431019457295283    0.3137961085409435    0.2435943443319890 Ga3+
   0.7431019457295281    0.5137961085409434    0.2435943443319891 Ga3+
   0.1431019457295285    0.7137961085409433    0.2435943443319890 Ga3+
   0.5431019457295286    0.9137961085409434    0.2435943443319889 Ga3+
   0.9183949316974934    0.1632101366050133    0.3585014773472170 Ga3+
   0.3183949316974936    0.3632101366050131    0.3585014773472169 Ga3+
   0.7183949316974936    0.5632101366050131    0.3585014773472168 Ga3+
   0.1183949316974938    0.7632101366050129    0.3585014773472168 Ga3+
   0.5183949316974938    0.9632101366050129    0.3585014773472167 Ga3+
   0.9816564761431262    0.0366870477137474    0.3589217991471738 Ga3+
   0.3816564761431265    0.2366870477137472    0.3589217991471738 Ga3+
   0.7816564761431265    0.4366870477137471    0.3589217991471737 Ga3+
   0.1816564761431267    0.6366870477137471    0.3589217991471736 Ga3+
   0.5816564761431268    0.8366870477137470    0.3589217991471735 Ga3+
   0.4498725423439903    0.1002549153120195    0.3311660986185891 Ga3+
   0.8498725423439906    0.3002549153120192    0.3311660986185891 Ga3+
   0.2498725423439905    0.5002549153120193    0.3311660986185890 Ga3+
   0.6498725423439906    0.7002549153120192    0.3311660986185888 Ga3+
   0.0498725423439908    0.9002549153120191    0.3311660986185888 Ga3+
   0.4966404056130788    0.0067191887738423    0.3149257611038955 Ga3+
   0.8966404056130788    0.2067191887738424    0.3149257611038954 Ga3+
   0.2966404056130789    0.4067191887738422    0.3149257611038953 Ga3+
   0.6966404056130792    0.6067191887738420    0.3149257611038954 Ga3+
   0.0966404056130793    0.8067191887738420    0.3149257611038953 Ga3+
   0.4719333915810442    0.0561332168379121    0.4298328941191234 Ga3+
   0.8719333915810442    0.2561332168379121    0.4298328941191233 Ga3+
   0.2719333915810443    0.4561332168379120    0.4298328941191233 Ga3+
   0.6719333915810446    0.6561332168379118    0.4298328941191233 Ga3+
   0.0719333915810446    0.8561332168379120    0.4298328941191232 Ga3+
   0.9351949360266770    0.1296101279466460    0.4302532159190801 Ga3+
   0.3351949360266772    0.3296101279466460    0.4302532159190801 Ga3+
   0.7351949360266774    0.5296101279466457    0.4302532159190802 Ga3+
   0.1351949360266773    0.7296101279466458    0.4302532159190799 Ga3+
   0.5351949360266776    0.9296101279466459    0.4302532159190798 Ga3+
   0.4034110022275409    0.1931779955449181    0.4024975153904953 Ga3+
   0.8034110022275410    0.3931779955449180    0.4024975153904953 Ga3+
   0.2034110022275411    0.5931779955449180    0.4024975153904953 Ga3+
   0.6034110022275413    0.7931779955449179    0.4024975153904953 Ga3+
   0.0034110022275414    0.9931779955449179    0.4024975153904951 Ga3+
   0.4501788654966295    0.0996422690067411    0.3862571778758017 Ga3+
   0.8501788654966295    0.2996422690067411    0.3862571778758016 Ga3+
   0.2501788654966295    0.4996422690067409    0.3862571778758015 Ga3+
   0.6501788654966296    0.6996422690067409    0.3862571778758015 Ga3+
   0.0501788654966299    0.8996422690067407    0.3862571778758014 Ga3+
   0.4254718514645947    0.1490562970708107    0.5011643108910296 Ga3+
   0.8254718514645948    0.3490562970708107    0.5011643108910296 Ga3+
   0.2254718514645948    0.5490562970708105    0.5011643108910294 Ga3+
   0.6254718514645949    0.7490562970708106    0.5011643108910294 Ga3+
   0.0254718514645952    0.9490562970708104    0.5011643108910294 Ga3+
   0.4887333959102279    0.0225332081795447    0.5015846326909864 Ga3+
   0.8887333959102277    0.2225332081795447    0.5015846326909863 Ga3+
   0.2887333959102279    0.4225332081795447    0.5015846326909863 Ga3+
   0.6887333959102282    0.6225332081795444    0.5015846326909863 Ga3+
   0.0887333959102281    0.8225332081795445    0.5015846326909862 Ga3+
   0.9569494621110918    0.0861010757778169    0.4738289321624017 Ga3+
   0.3569494621110918    0.2861010757778168    0.4738289321624016 Ga3+
   0.7569494621110917    0.4861010757778166    0.4738289321624015 Ga3+
   0.1569494621110920    0.6861010757778169    0.4738289321624014 Ga3+
   0.5569494621110920    0.8861010757778167    0.4738289321624015 Ga3+
   0.4037173253801803    0.1925653492396397    0.4575885946477080 Ga3+
   0.8037173253801805    0.3925653492396398    0.4575885946477078 Ga3+
   0.2037173253801804    0.5925653492396397    0.4575885946477078 Ga3+
   0.6037173253801805    0.7925653492396396    0.4575885946477077 Ga3+
   0.0037173253801806    0.9925653492396395    0.4575885946477077 Ga3+
   0.9790103113481455    0.0419793773037096    0.5724957276629360 Ga3+
   0.3790103113481454    0.2419793773037095    0.5724957276629360 Ga3+
   0.7790103113481456    0.4419793773037095    0.5724957276629360 Ga3+
   0.1790103113481456    0.6419793773037094    0.5724957276629360 Ga3+
   0.5790103113481460    0.8419793773037094    0.5724957276629358 Ga3+
   0.4422718557937786    0.1154562884124435    0.5729160494628928 Ga3+
   0.8422718557937786    0.3154562884124435    0.5729160494628925 Ga3+
   0.2422718557937787    0.5154562884124434    0.5729160494628925 Ga3+
   0.6422718557937789    0.7154562884124432    0.5729160494628927 Ga3+
   0.0422718557937789    0.9154562884124432    0.5729160494628925 Ga3+
   0.9104879219946423    0.1790241560107158    0.5451603489343079 Ga3+
   0.3104879219946424    0.3790241560107156    0.5451603489343078 Ga3+
   0.7104879219946423    0.5790241560107158    0.5451603489343078 Ga3+
   0.1104879219946427    0.7790241560107155    0.5451603489343079 Ga3+
   0.5104879219946425    0.9790241560107155    0.5451603489343078 Ga3+
   0.9572557852637310    0.0854884294725386    0.5289200114196143 Ga3+
   0.3572557852637309    0.2854884294725386    0.5289200114196142 Ga3+
   0.7572557852637312    0.4854884294725385    0.5289200114196141 Ga3+
   0.1572557852637311    0.6854884294725384    0.5289200114196141 Ga3+
   0.5572557852637313    0.8854884294725384    0.5289200114196140 Ga3+
   0.9325487712316961    0.1349024575366083    0.6438271444348423 Ga3+
   0.3325487712316961    0.3349024575366082    0.6438271444348422 Ga3+
   0.7325487712316960    0.5349024575366080    0.6438271444348422 Ga3+
   0.1325487712316963    0.7349024575366081    0.6438271444348421 Ga3+
   0.5325487712316964    0.9349024575366082    0.6438271444348421 Ga3+
   0.9958103156773289    0.0083793686453423    0.6442474662347991 Ga3+
   0.3958103156773289    0.2083793686453423    0.6442474662347991 Ga3+
   0.7958103156773292    0.4083793686453422    0.6442474662347990 Ga3+
   0.1958103156773292    0.6083793686453423    0.6442474662347990 Ga3+
   0.5958103156773293    0.8083793686453421    0.6442474662347989 Ga3+
   0.4640263818781930    0.0719472362436145    0.6164917657062143 Ga3+
   0.8640263818781931    0.2719472362436144    0.6164917657062143 Ga3+
   0.2640263818781931    0.4719472362436143    0.6164917657062142 Ga3+
   0.6640263818781933    0.6719472362436142    0.6164917657062142 Ga3+
   0.0640263818781934    0.8719472362436143    0.6164917657062142 Ga3+
   0.9107942451472815    0.1784115097054375    0.6002514281915206 Ga3+
   0.3107942451472815    0.3784115097054374    0.6002514281915206 Ga3+
   0.7107942451472817    0.5784115097054372    0.6002514281915206 Ga3+
   0.1107942451472818    0.7784115097054372    0.6002514281915204 Ga3+
   0.5107942451472819    0.9784115097054369    0.6002514281915206 Ga3+
   0.4860872311152467    0.0278255377695071    0.7151585612067486 Ga3+
   0.8860872311152468    0.2278255377695070    0.7151585612067486 Ga3+
   0.2860872311152468    0.4278255377695069    0.7151585612067485 Ga3+
   0.6860872311152469    0.6278255377695069    0.7151585612067484 Ga3+
   0.0860872311152470    0.8278255377695067    0.7151585612067484 Ga3+
   0.9493487755608797    0.1013024488782411    0.7155788830067054 Ga3+
   0.3493487755608797    0.3013024488782410    0.7155788830067054 Ga3+
   0.7493487755608799    0.5013024488782409    0.7155788830067052 Ga3+
   0.1493487755608799    0.7013024488782409    0.7155788830067052 Ga3+
   0.5493487755608799    0.9013024488782408    0.7155788830067052 Ga3+
   0.4175648417617435    0.1648703164765133    0.6878231824781207 Ga3+
   0.8175648417617437    0.3648703164765132    0.6878231824781206 Ga3+
   0.2175648417617437    0.5648703164765131    0.6878231824781206 Ga3+
   0.6175648417617439    0.7648703164765129    0.6878231824781206 Ga3+
   0.0175648417617440    0.9648703164765130    0.6878231824781206 Ga3+
   0.4643327050308323    0.0713345899383360    0.6715828449634269 Ga3+
   0.8643327050308323    0.2713345899383360    0.6715828449634269 Ga3+
   0.2643327050308323    0.4713345899383358    0.6715828449634268 Ga3+
   0.6643327050308325    0.6713345899383359    0.6715828449634268 Ga3+
   0.0643327050308326    0.8713345899383358    0.6715828449634267 Ga3+
   0.4396256909987974    0.1207486180024058    0.7864899779786546 Ga3+
   0.8396256909987972    0.3207486180024057    0.7864899779786546 Ga3+
   0.2396256909987974    0.5207486180024056    0.7864899779786546 Ga3+
   0.6396256909987975    0.7207486180024055    0.7864899779786546 Ga3+
   0.0396256909987977    0.9207486180024054    0.7864899779786546 Ga3+
   0.9028872354444305    0.1942255291111397    0.7869102997786116 Ga3+
   0.3028872354444305    0.3942255291111397    0.7869102997786116 Ga3+
   0.7028872354444307    0.5942255291111396    0.7869102997786115 Ga3+
   0.1028872354444308    0.7942255291111395    0.7869102997786114 Ga3+
   0.5028872354444308    0.9942255291111395    0.7869102997786114 Ga3+
   0.9711033016452939    0.0577933967094121    0.7591545992500269 Ga3+
   0.3711033016452940    0.2577933967094120    0.7591545992500269 Ga3+
   0.7711033016452939    0.4577933967094120    0.7591545992500268 Ga3+
   0.1711033016452942    0.6577933967094117    0.7591545992500268 Ga3+
   0.5711033016452942    0.8577933967094119    0.7591545992500267 Ga3+
   0.4178711649143830    0.1642576701712348    0.7429142617353331 Ga3+
   0.8178711649143828    0.3642576701712348    0.7429142617353331 Ga3+
   0.2178711649143831    0.5642576701712346    0.7429142617353330 Ga3+
   0.6178711649143832    0.7642576701712346    0.7429142617353329 Ga3+
   0.0178711649143833    0.9642576701712344    0.7429142617353329 Ga3+
   0.9931641508823480    0.0136716982353048    0.8578213947505612 Ga3+
   0.3931641508823481    0.2136716982353047    0.8578213947505612 Ga3+
   0.7931641508823480    0.4136716982353047    0.8578213947505611 Ga3+
   0.1931641508823483    0.6136716982353044    0.8578213947505612 Ga3+
   0.5931641508823484    0.8136716982353045    0.8578213947505610 Ga3+
   0.4564256953279812    0.0871486093440385    0.8582417165505178 Ga3+
   0.8564256953279812    0.2871486093440384    0.8582417165505178 Ga3+
   0.2564256953279813    0.4871486093440384    0.8582417165505177 Ga3+
   0.6564256953279816    0.6871486093440381    0.8582417165505177 Ga3+
   0.0564256953279815    0.8871486093440383    0.8582417165505177 Ga3+
   0.9246417615288454    0.1507164769423107    0.8304860160219332 Ga3+
   0.3246417615288454    0.3507164769423107    0.8304860160219331 Ga3+
   0.7246417615288454    0.5507164769423106    0.8304860160219331 Ga3+
   0.1246417615288456    0.7507164769423104    0.8304860160219331 Ga3+
   0.5246417615288457    0.9507164769423105    0.8304860160219329 Ga3+
   0.9714096247979335    0.0571807504041337    0.8142456785072396 Ga3+
   0.3714096247979335    0.2571807504041336    0.8142456785072395 Ga3+
   0.7714096247979336    0.4571807504041336    0.8142456785072395 Ga3+
   0.1714096247979338    0.6571807504041335    0.8142456785072395 Ga3+
   0.5714096247979339    0.8571807504041336    0.8142456785072394 Ga3+
   0.9467026107658989    0.1065947784682034    0.9291528115224674 Ga3+
   0.3467026107658988    0.3065947784682033    0.9291528115224674 Ga3+
   0.7467026107658987    0.5065947784682032    0.9291528115224673 Ga3+
   0.1467026107658990    0.7065947784682031    0.9291528115224673 Ga3+
   0.5467026107658991    0.9065947784682030    0.9291528115224672 Ga3+
   0.4099641552115317    0.1800716895769372    0.9295731333224242 Ga3+
   0.8099641552115318    0.3800716895769372    0.9295731333224241 Ga3+
   0.2099641552115319    0.5800716895769371    0.9295731333224242 Ga3+
   0.6099641552115321    0.7800716895769370    0.9295731333224242 Ga3+
   0.0099641552115322    0.9800716895769370    0.9295731333224241 Ga3+
   0.4781802214123957    0.0436395571752095    0.9018174327938394 Ga3+
   0.8781802214123958    0.2436395571752094    0.9018174327938394 Ga3+
   0.2781802214123958    0.4436395571752093    0.9018174327938394 Ga3+
   0.6781802214123960    0.6436395571752093    0.9018174327938393 Ga3+
   0.0781802214123960    0.8436395571752093    0.9018174327938393 Ga3+
   0.9249480846814843    0.1501038306370325    0.8855770952791459 Ga3+
   0.3249480846814842    0.3501038306370325    0.8855770952791459 Ga3+
   0.7249480846814843    0.5501038306370324    0.8855770952791457 Ga3+
   0.1249480846814845    0.7501038306370322    0.8855770952791457 Ga3+
   0.5249480846814846    0.9501038306370322    0.8855770952791456 Ga3+
   0.9999999999999989    0.9047619047619049    0.1674553441066767 Si
   0.4999999999999992    0.8333333333333333    0.1674553441066767 Si
   0.9999999999999986    0.7619047619047616    0.1674553441066767 Si
   0.4999999999999997    0.6904761904761905    0.1674553441066767 Si
   0.9999999999999987    0.6190476190476191    0.1674553441066767 Si
   0.4999999999999991    0.5476190476190476    0.1674553441066767 Si
   0.9999999999999991    0.4761904761904762    0.1674553441066767 Si
   0.4999999999999993    0.4047619047619048    0.1674553441066767 Si
   0.9999999999999993    0.3333333333333334    0.1674553441066767 Si
   0.4999999999999994    0.2619047619047619    0.1674553441066767 Si
   0.9999999999999992    0.1904761904761905    0.1674553441066767 Si
   0.4999999999999993    0.1190476190476190    0.1674553441066767 Si
   0.9999999999999991    0.0476190476190476    0.1674553441066767 Si
   0.4999999999999997    0.9761904761904762    0.1674553441066767 Si
   0.4999999999999991    0.8809523809523810    0.0909955360228322 Si
   0.9999999999999996    0.8095238095238095    0.0909955360228322 Si
   0.4999999999999994    0.7380952380952380    0.0909955360228322 Si
   0.9999999999999999    0.6666666666666666    0.0909955360228322 Si
   0.4999999999999991    0.5952380952380953    0.0909955360228322 Si
   0.9999999999999999    0.5238095238095237    0.0909955360228322 Si
   0.4999999999999994    0.4523809523809524    0.0909955360228322 Si
   0.9999999999999994    0.3809523809523810    0.0909955360228322 Si
   0.4999999999999996    0.3095238095238095    0.0909955360228322 Si
   0.0000000000000000    0.2380952380952381    0.0909955360228322 Si
   0.4999999999999997    0.1666666666666667    0.0909955360228322 Si
   0.0000000000000000    0.0952380952380953    0.0909955360228322 Si
   0.4999999999999997    0.0238095238095238    0.0909955360228322 Si
   0.9999999999999987    0.9523809523809523    0.0909955360228322 Si
   0.4999999999999980    0.9285714285714285    0.2056772351607119 Si
   0.9999999999999999    0.8571428571428572    0.2056772351607119 Si
   0.4999999999999993    0.7857142857142856    0.2056772351607119 Si
   0.0000000000000002    0.7142857142857141    0.2056772351607119 Si
   0.4999999999999998    0.6428571428571429    0.2056772351607119 Si
   0.0000000000000002    0.5714285714285714    0.2056772351607119 Si
   0.4999999999999992    0.4999999999999999    0.2056772351607119 Si
   0.9999999999999997    0.4285714285714285    0.2056772351607119 Si
   0.4999999999999999    0.3571428571428572    0.2056772351607119 Si
   0.0000000000000001    0.2857142857142857    0.2056772351607119 Si
   0.4999999999999998    0.2142857142857142    0.2056772351607119 Si
   0.0000000000000000    0.1428571428571428    0.2056772351607119 Si
   0.4999999999999998    0.0714285714285714    0.2056772351607119 Si
   0.0000000000000000    0.0000000000000000    0.2056772351607119 Si
   0.4999999999999980    0.9285714285714285    0.1292174270768673 Si
   0.9999999999999999    0.8571428571428572    0.1292174270768673 Si
   0.4999999999999993    0.7857142857142856    0.1292174270768673 Si
   0.0000000000000002    0.7142857142857141    0.1292174270768673 Si
   0.4999999999999998    0.6428571428571429    0.1292174270768673 Si
   0.0000000000000002    0.5714285714285714    0.1292174270768673 Si
   0.4999999999999992    0.4999999999999999    0.1292174270768673 Si
   0.9999999999999997    0.4285714285714285    0.1292174270768673 Si
   0.4999999999999999    0.3571428571428572    0.1292174270768673 Si
   0.0000000000000001    0.2857142857142857    0.1292174270768673 Si
   0.4999999999999998    0.2142857142857142    0.1292174270768673 Si
   0.0000000000000000    0.1428571428571428    0.1292174270768673 Si
   0.4999999999999998    0.0714285714285714    0.1292174270768673 Si
   0.0000000000000000    0.0000000000000000    0.1292174270768673 Si
   0.9999999999999989    0.9047619047619049    0.1962102554498832 C
   0.4999999999999992    0.8333333333333333    0.1962102554498832 C
   0.9999999999999986    0.7619047619047616    0.1962102554498832 C
   0.4999999999999997    0.6904761904761905    0.1962102554498832 C
   0.9999999999999987    0.6190476190476191    0.1962102554498832 C
   0.4999999999999991    0.5476190476190476    0.1962102554498832 C
   0.9999999999999991    0.4761904761904762    0.1962102554498832 C
   0.4999999999999993    0.4047619047619048    0.1962102554498832 C
   0.9999999999999993    0.3333333333333334    0.1962102554498832 C
   0.4999999999999994    0.2619047619047619    0.1962102554498832 C
   0.9999999999999992    0.1904761904761905    0.1962102554498832 C
   0.4999999999999993    0.1190476190476190    0.1962102554498832 C
   0.9999999999999991    0.0476190476190476    0.1962102554498832 C
   0.4999999999999997    0.9761904761904762    0.1962102554498832 C
   0.4999999999999991    0.8809523809523810    0.1197504473660387 C
   0.9999999999999996    0.8095238095238095    0.1197504473660387 C
   0.4999999999999994    0.7380952380952380    0.1197504473660387 C
   0.9999999999999999    0.6666666666666666    0.1197504473660387 C
   0.4999999999999991    0.5952380952380953    0.1197504473660387 C
   0.9999999999999999    0.5238095238095237    0.1197504473660387 C
   0.4999999999999994    0.4523809523809524    0.1197504473660387 C
   0.9999999999999994    0.3809523809523810    0.1197504473660387 C
   0.4999999999999996    0.3095238095238095    0.1197504473660387 C
   0.0000000000000000    0.2380952380952381    0.1197504473660387 C
   0.4999999999999997    0.1666666666666667    0.1197504473660387 C
   0.0000000000000000    0.0952380952380953    0.1197504473660387 C
   0.4999999999999997    0.0238095238095238    0.1197504473660387 C
   0.9999999999999987    0.9523809523809523    0.1197504473660387 C
   0.4999999999999980    0.9285714285714285    0.0814200047932707 C
   0.9999999999999999    0.8571428571428572    0.0814200047932707 C
   0.4999999999999993    0.7857142857142856    0.0814200047932707 C
   0.0000000000000002    0.7142857142857141    0.0814200047932707 C
   0.4999999999999998    0.6428571428571429    0.0814200047932707 C
   0.0000000000000002    0.5714285714285714    0.0814200047932707 C
   0.4999999999999992    0.4999999999999999    0.0814200047932707 C
   0.9999999999999997    0.4285714285714285    0.0814200047932707 C
   0.4999999999999999    0.3571428571428572    0.0814200047932707 C
   0.0000000000000001    0.2857142857142857    0.0814200047932707 C
   0.4999999999999998    0.2142857142857142    0.0814200047932707 C
   0.0000000000000000    0.1428571428571428    0.0814200047932707 C
   0.4999999999999998    0.0714285714285714    0.0814200047932707 C
   0.0000000000000000    0.0000000000000000    0.0814200047932707 C
   0.4999999999999980    0.9285714285714285    0.1578798128771153 C
   0.9999999999999999    0.8571428571428572    0.1578798128771153 C
   0.4999999999999993    0.7857142857142856    0.1578798128771153 C
   0.0000000000000002    0.7142857142857141    0.1578798128771153 C
   0.4999999999999998    0.6428571428571429    0.1578798128771153 C
   0.0000000000000002    0.5714285714285714    0.1578798128771153 C
   0.4999999999999992    0.4999999999999999    0.1578798128771153 C
   0.9999999999999997    0.4285714285714285    0.1578798128771153 C
   0.4999999999999999    0.3571428571428572    0.1578798128771153 C
   0.0000000000000001    0.2857142857142857    0.1578798128771153 C
   0.4999999999999998    0.2142857142857142    0.1578798128771153 C
   0.0000000000000000    0.1428571428571428    0.1578798128771153 C
   0.4999999999999998    0.0714285714285714    0.1578798128771153 C
   0.0000000000000000    0.0000000000000000    0.1578798128771153 C
   0.4314018499229198    0.1371963001541605    0.2348607417966296 O2-
   0.8314018499229198    0.3371963001541605    0.2348607417966296 O2-
   0.2314018499229199    0.5371963001541605    0.2348607417966296 O2-
   0.6314018499229203    0.7371963001541602    0.2348607417966297 O2-
   0.0314018499229202    0.9371963001541600    0.2348607417966296 O2-
   0.4080341782670481    0.1839316434659035    0.2685682843820422 O2-
   0.8080341782670483    0.3839316434659034    0.2685682843820421 O2-
   0.2080341782670483    0.5839316434659033    0.2685682843820422 O2-
   0.6080341782670483    0.7839316434659033    0.2685682843820422 O2-
   0.0080341782670486    0.9839316434659032    0.2685682843820419 O2-
   0.4982162043980171    0.0035675912039656    0.2314912033107559 O2-
   0.8982162043980170    0.2035675912039659    0.2314912033107560 O2-
   0.2982162043980170    0.4035675912039657    0.2314912033107558 O2-
   0.6982162043980173    0.6035675912039655    0.2314912033107559 O2-
   0.0982162043980173    0.8035675912039657    0.2314912033107558 O2-
   0.9412198237919510    0.1175603524160986    0.2719378228679161 O2-
   0.3412198237919509    0.3175603524160984    0.2719378228679159 O2-
   0.7412198237919508    0.5175603524160983    0.2719378228679159 O2-
   0.1412198237919511    0.7175603524160983    0.2719378228679159 O2-
   0.5412198237919511    0.9175603524160985    0.2719378228679157 O2-
   0.9656349373647513    0.0687301252704973    0.2317314361094171 O2-
   0.3656349373647513    0.2687301252704973    0.2317314361094171 O2-
   0.7656349373647515    0.4687301252704970    0.2317314361094171 O2-
   0.1656349373647516    0.6687301252704970    0.2317314361094170 O2-
   0.5656349373647517    0.8687301252704971    0.2317314361094168 O2-
   0.4738010908252165    0.0523978183495670    0.2716975900692549 O2-
   0.8738010908252166    0.2523978183495670    0.2716975900692548 O2-
   0.2738010908252166    0.4523978183495668    0.2716975900692546 O2-
   0.6738010908252169    0.6523978183495668    0.2716975900692546 O2-
   0.0738010908252168    0.8523978183495666    0.2716975900692546 O2-
   0.9849403098064704    0.0301193803870593    0.3061921585685360 O2-
   0.3849403098064705    0.2301193803870593    0.3061921585685359 O2-
   0.7849403098064703    0.4301193803870593    0.3061921585685359 O2-
   0.1849403098064709    0.6301193803870591    0.3061921585685359 O2-
   0.5849403098064706    0.8301193803870591    0.3061921585685359 O2-
   0.9615726381505987    0.0768547236988023    0.3398997011539485 O2-
   0.3615726381505988    0.2768547236988024    0.3398997011539484 O2-
   0.7615726381505987    0.4768547236988022    0.3398997011539484 O2-
   0.1615726381505990    0.6768547236988022    0.3398997011539482 O2-
   0.5615726381505991    0.8768547236988019    0.3398997011539482 O2-
   0.4517546642815678    0.0964906714368645    0.3028226200826621 O2-
   0.8517546642815677    0.2964906714368644    0.3028226200826621 O2-
   0.2517546642815678    0.4964906714368643    0.3028226200826623 O2-
   0.6517546642815680    0.6964906714368643    0.3028226200826620 O2-
   0.0517546642815680    0.8964906714368643    0.3028226200826619 O2-
   0.4947582836755015    0.0104834326489972    0.3432692396398221 O2-
   0.8947582836755014    0.2104834326489973    0.3432692396398224 O2-
   0.2947582836755015    0.4104834326489971    0.3432692396398221 O2-
   0.6947582836755015    0.6104834326489971    0.3432692396398221 O2-
   0.0947582836755018    0.8104834326489970    0.3432692396398220 O2-
   0.9191733972483019    0.1616532055033959    0.3030628528813233 O2-
   0.3191733972483022    0.3616532055033957    0.3030628528813234 O2-
   0.7191733972483021    0.5616532055033959    0.3030628528813232 O2-
   0.1191733972483023    0.7616532055033957    0.3030628528813232 O2-
   0.5191733972483025    0.9616532055033957    0.3030628528813231 O2-
   0.4273395507087672    0.1453208985824658    0.3430290068411612 O2-
   0.8273395507087672    0.3453208985824658    0.3430290068411611 O2-
   0.2273395507087674    0.5453208985824656    0.3430290068411610 O2-
   0.6273395507087675    0.7453208985824656    0.3430290068411610 O2-
   0.0273395507087676    0.9453208985824654    0.3430290068411610 O2-
   0.9384787696900213    0.1230424606199580    0.3775235753404423 O2-
   0.3384787696900211    0.3230424606199581    0.3775235753404423 O2-
   0.7384787696900212    0.5230424606199581    0.3775235753404423 O2-
   0.1384787696900214    0.7230424606199577    0.3775235753404423 O2-
   0.5384787696900214    0.9230424606199579    0.3775235753404422 O2-
   0.9151110980341494    0.1697778039317012    0.4112311179258549 O2-
   0.3151110980341493    0.3697778039317012    0.4112311179258548 O2-
   0.7151110980341493    0.5697778039317011    0.4112311179258547 O2-
   0.1151110980341496    0.7697778039317009    0.4112311179258547 O2-
   0.5151110980341497    0.9697778039317008    0.4112311179258545 O2-
   0.4052931241651184    0.1894137516697631    0.3741540368545686 O2-
   0.8052931241651186    0.3894137516697632    0.3741540368545685 O2-
   0.2052931241651184    0.5894137516697632    0.3741540368545684 O2-
   0.6052931241651186    0.7894137516697629    0.3741540368545685 O2-
   0.0052931241651187    0.9894137516697631    0.3741540368545683 O2-
   0.4482967435590522    0.1034065128818960    0.4146006564117285 O2-
   0.8482967435590522    0.3034065128818959    0.4146006564117285 O2-
   0.2482967435590523    0.5034065128818958    0.4146006564117284 O2-
   0.6482967435590523    0.7034065128818957    0.4146006564117284 O2-
   0.0482967435590526    0.9034065128818957    0.4146006564117283 O2-
   0.4727118571318528    0.0545762857362949    0.3743942696532297 O2-
   0.8727118571318530    0.2545762857362946    0.3743942696532296 O2-
   0.2727118571318529    0.4545762857362947    0.3743942696532295 O2-
   0.6727118571318530    0.6545762857362947    0.3743942696532294 O2-
   0.0727118571318531    0.8545762857362945    0.3743942696532295 O2-
   0.9808780105923177    0.0382439788153646    0.4143604236130675 O2-
   0.3808780105923178    0.2382439788153644    0.4143604236130674 O2-
   0.7808780105923177    0.4382439788153644    0.4143604236130674 O2-
   0.1808780105923180    0.6382439788153643    0.4143604236130674 O2-
   0.5808780105923180    0.8382439788153643    0.4143604236130674 O2-
   0.4920172295735717    0.0159655408528570    0.4488549921123487 O2-
   0.8920172295735719    0.2159655408528569    0.4488549921123487 O2-
   0.2920172295735718    0.4159655408528568    0.4488549921123486 O2-
   0.6920172295735719    0.6159655408528567    0.4488549921123487 O2-
   0.0920172295735721    0.8159655408528569    0.4488549921123486 O2-
   0.4686495579177001    0.0627008841645998    0.4825625346977612 O2-
   0.8686495579177000    0.2627008841645999    0.4825625346977610 O2-
   0.2686495579177002    0.4627008841645996    0.4825625346977610 O2-
   0.6686495579177003    0.6627008841645996    0.4825625346977611 O2-
   0.0686495579177004    0.8627008841645998    0.4825625346977610 O2-
   0.9588315840486691    0.0823368319026620    0.4454854536264747 O2-
   0.3588315840486691    0.2823368319026620    0.4454854536264746 O2-
   0.7588315840486692    0.4823368319026619    0.4454854536264746 O2-
   0.1588315840486693    0.6823368319026618    0.4454854536264746 O2-
   0.5588315840486694    0.8823368319026618    0.4454854536264745 O2-
   1.0018352034426028   -0.0036704068852052    0.4859320731836350 O2-
   0.4018352034426028    0.1963295931147949    0.4859320731836348 O2-
   0.8018352034426030    0.3963295931147947    0.4859320731836348 O2-
   0.2018352034426030    0.5963295931147946    0.4859320731836347 O2-
   0.6018352034426032    0.7963295931147942    0.4859320731836347 O2-
   0.4262503170154034    0.1474993659691935    0.4457256864251359 O2-
   0.8262503170154033    0.3474993659691935    0.4457256864251359 O2-