generated by phonopy
   1.0
     9.2815777012533278    0.0000000000000000    0.0000000107742675
    -4.6407888506266639    8.0380604664281989   -0.0000000053871339
     0.0000000246789648    0.0000000000000000   20.2572788409398825
Si C
  72   72
Direct
  0.3333263493074649  0.0000027741470063  0.0939479412717183
  0.6666596826407983  0.0000027741470063  0.0939479412717183
  0.9999930159741315  0.0000027741470063  0.0939479412717183
  0.3333263493074649  0.3333361074803396  0.0939479412717183
  0.6666596826407983  0.3333361074803396  0.0939479412717183
  0.9999930159741315  0.3333361074803396  0.0939479412717183
  0.3333263493074649  0.6666694408136730  0.0939479412717183
  0.6666596826407983  0.6666694408136730  0.0939479412717183
  0.9999930159741316  0.6666694408136730  0.0939479412717183
  0.3333263493074648  0.0000027741470063  0.5939479412717183
  0.6666596826407982  0.0000027741470063  0.5939479412717183
  0.9999930159741314  0.0000027741470063  0.5939479412717183
  0.3333263493074649  0.3333361074803396  0.5939479412717183
  0.6666596826407982  0.3333361074803396  0.5939479412717183
  0.9999930159741314  0.3333361074803396  0.5939479412717183
  0.3333263493074649  0.6666694408136730  0.5939479412717183
  0.6666596826407982  0.6666694408136730  0.5939479412717183
  0.9999930159741315  0.6666694408136730  0.5939479412717183
  0.3333235751604608  0.3333305591863270  0.3439479412717183
  0.6666569084937942  0.3333305591863270  0.3439479412717183
  0.9999902418271275  0.3333305591863270  0.3439479412717183
  0.3333235751604609  0.6666638925196603  0.3439479412717183
  0.6666569084937942  0.6666638925196603  0.3439479412717183
  0.9999902418271275  0.6666638925196603  0.3439479412717183
  0.3333235751604609  0.9999972258529937  0.3439479412717183
  0.6666569084937942  0.9999972258529937  0.3439479412717183
  0.9999902418271275  0.9999972258529937  0.3439479412717183
  0.3333235751604609  0.3333305591863270  0.8439479412717183
  0.6666569084937942  0.3333305591863270  0.8439479412717183
  0.9999902418271275  0.3333305591863270  0.8439479412717182
  0.3333235751604609  0.6666638925196603  0.8439479412717182
  0.6666569084937943  0.6666638925196603  0.8439479412717183
  0.9999902418271276  0.6666638925196603  0.8439479412717185
  0.3333235751604609  0.9999972258529937  0.8439479412717185
  0.6666569084937943  0.9999972258529937  0.8439479412717183
  0.9999902418271276  0.9999972258529937  0.8439479412717183
  0.1111045075902553  0.2222256061160455  0.2189234885021740
  0.4444378409235886  0.2222256061160455  0.2189234885021740
  0.7777711742569220  0.2222256061160455  0.2189234885021740
  0.1111045075902553  0.5555589394493788  0.2189234885021740
  0.4444378409235886  0.5555589394493788  0.2189234885021740
  0.7777711742569220  0.5555589394493788  0.2189234885021740
  0.1111045075902553  0.8888922727827122  0.2189234885021740
  0.4444378409235886  0.8888922727827122  0.2189234885021740
  0.7777711742569219  0.8888922727827122  0.2189234885021740
  0.1111045075902553  0.2222256061160455  0.7189234885021740
  0.4444378409235886  0.2222256061160455  0.7189234885021740
  0.7777711742569219  0.2222256061160455  0.7189234885021740
  0.1111045075902553  0.5555589394493788  0.7189234885021740
  0.4444378409235886  0.5555589394493788  0.7189234885021740
  0.7777711742569219  0.5555589394493788  0.7189234885021740
  0.1111045075902553  0.8888922727827122  0.7189234885021740
  0.4444378409235886  0.8888922727827122  0.7189234885021740
  0.7777711742569219  0.8888922727827122  0.7189234885021740
  0.2222122348075430  0.1111077272172878  0.4689234885021741
  0.5555455681408763  0.1111077272172878  0.4689234885021741
  0.8888789014742097  0.1111077272172878  0.4689234885021740
  0.2222122348075431  0.4444410605506211  0.4689234885021740
  0.5555455681408763  0.4444410605506211  0.4689234885021740
  0.8888789014742097  0.4444410605506211  0.4689234885021740
  0.2222122348075431  0.7777743938839544  0.4689234885021740
  0.5555455681408763  0.7777743938839544  0.4689234885021740
  0.8888789014742098  0.7777743938839544  0.4689234885021741
  0.2222122348075430  0.1111077272172878  0.9689234885021740
  0.5555455681408764  0.1111077272172878  0.9689234885021740
  0.8888789014742098  0.1111077272172878  0.9689234885021740
  0.2222122348075430  0.4444410605506211  0.9689234885021740
  0.5555455681408764  0.4444410605506211  0.9689234885021741
  0.8888789014742097  0.4444410605506211  0.9689234885021740
  0.2222122348075431  0.7777743938839544  0.9689234885021740
  0.5555455681408764  0.7777743938839544  0.9689234885021740
  0.8888789014742098  0.7777743938839544  0.9689234885021740
  0.3333236278759580  0.3333305128543363  0.0002246470128852
  0.6666569612092914  0.3333305128543363  0.0002246470128852
  0.9999902945426246  0.3333305128543363  0.0002246470128852
  0.3333236278759581  0.6666638461876697  0.0002246470128852
  0.6666569612092914  0.6666638461876697  0.0002246470128852
  0.9999902945426247  0.6666638461876697  0.0002246470128853
  0.3333236278759580  0.9999971795210030  0.0002246470128852
  0.6666569612092914  0.9999971795210030  0.0002246470128852
  0.9999902945426246  0.9999971795210030  0.0002246470128852
  0.3333236278759580  0.3333305128543363  0.5002246470128853
  0.6666569612092914  0.3333305128543363  0.5002246470128853
  0.9999902945426244  0.3333305128543363  0.5002246470128853
  0.3333236278759581  0.6666638461876697  0.5002246470128853
  0.6666569612092914  0.6666638461876697  0.5002246470128853
  0.9999902945426246  0.6666638461876697  0.5002246470128853
  0.3333236278759580  0.9999971795210030  0.5002246470128853
  0.6666569612092914  0.9999971795210030  0.5002246470128853
  0.9999902945426246  0.9999971795210030  0.5002246470128853
  0.3333264483549550  0.0000028204789970  0.2502246470128853
  0.6666597816882883  0.0000028204789970  0.2502246470128853
  0.9999931150216217  0.0000028204789970  0.2502246470128853
  0.3333264483549551  0.3333361538123304  0.2502246470128853
  0.6666597816882884  0.3333361538123304  0.2502246470128853
  0.9999931150216217  0.3333361538123304  0.2502246470128853
  0.3333264483549551  0.6666694871456637  0.2502246470128853
  0.6666597816882883  0.6666694871456637  0.2502246470128853
  0.9999931150216216  0.6666694871456637  0.2502246470128853
  0.3333264483549551  0.0000028204789970  0.7502246470128853
  0.6666597816882884  0.0000028204789970  0.7502246470128853
  0.9999931150216217  0.0000028204789970  0.7502246470128853
  0.3333264483549551  0.3333361538123304  0.7502246470128853
  0.6666597816882884  0.3333361538123304  0.7502246470128853
  0.9999931150216217  0.3333361538123304  0.7502246470128853
  0.3333264483549551  0.6666694871456637  0.7502246470128853
  0.6666597816882884  0.6666694871456637  0.7502246470128853
  0.9999931150216217  0.6666694871456637  0.7502246470128853
  0.1111044237182786  0.2211481853241550  0.1249039232132247
  0.4444377570516119  0.2222255905331992  0.1249039232132247
  0.7777710903849452  0.2222255905331992  0.1249039232132247
  0.1111044237182787  0.5555589238665325  0.1249039232132247
  0.4444377570516119  0.5555589238665325  0.1249039232132247
  0.7777710903849453  0.5555589238665325  0.1249039232132247
  0.1111044237182787  0.8888922571998659  0.1249039232132247
  0.4444377570516120  0.8888922571998659  0.1249039232132247
  0.7777710903849453  0.8888922571998659  0.1249039232132247
  0.1111044237182786  0.2222255905331992  0.6249039232132247
  0.4444377570516119  0.2222255905331992  0.6249039232132247
  0.7777710903849452  0.2222255905331992  0.6249039232132247
  0.1111044237182786  0.5555589238665325  0.6249039232132247
  0.4444377570516120  0.5555589238665325  0.6249039232132247
  0.7777710903849453  0.5555589238665325  0.6249039232132247
  0.1111044237182787  0.8888922571998659  0.6249039232132247
  0.4444377570516120  0.8888922571998659  0.6249039232132247
  0.7777710903849453  0.8888922571998659  0.6249039232132247
  0.2222121665184128  0.1111077428001342  0.3749039232132247
  0.5555454998517462  0.1111077428001342  0.3749039232132247
  0.8888788331850794  0.1111077428001342  0.3749039232132247
  0.2222121665184129  0.4444410761334676  0.3749039232132247
  0.5555454998517462  0.4444410761334676  0.3749039232132247
  0.8888788331850795  0.4444410761334676  0.3749039232132247
  0.2222121665184128  0.7777744094668009  0.3749039232132247
  0.5555454998517461  0.7777744094668009  0.3749039232132247
  0.8888788331850794  0.7777744094668009  0.3749039232132247
  0.2222121665184128  0.1111077428001342  0.8749039232132246
  0.5555454998517462  0.1111077428001342  0.8749039232132247
  0.8888788331850794  0.1111077428001342  0.8749039232132249
  0.2222121665184129  0.4444410761334676  0.8749039232132249
  0.5555454998517462  0.4444410761334676  0.8749039232132247
  0.8888788331850795  0.4444410761334676  0.8749039232132247
  0.2222121665184128  0.7777744094668009  0.8749039232132247
  0.5555454998517461  0.7777744094668009  0.8749039232132246
  0.8888788331850794  0.7777744094668009  0.8749039232132247
